*SPEF "ieee 1481-1999"
*DESIGN "rv32_add"
*DATE "15:44:22 Saturday September 26, 2026"
*VENDOR "The OpenROAD Project"
*PROGRAM "OpenROAD"
*VERSION "unknown"
*DESIGN_FLOW "NAME_SCOPE LOCAL" "PIN_CAP NONE"
*DIVIDER /
*DELIMITER :
*BUS_DELIMITER []
*T_UNIT 1 NS
*C_UNIT 1 PF
*R_UNIT 1 OHM
*L_UNIT 1 HENRY

*NAME_MAP
*1 _000_
*2 _001_
*3 _002_
*4 _003_
*5 _004_
*6 _005_
*7 _006_
*8 _007_
*9 _008_
*10 _009_
*11 _010_
*12 _011_
*13 _012_
*14 _013_
*15 _014_
*16 _015_
*17 _016_
*18 _017_
*19 _018_
*20 _019_
*21 _020_
*22 _021_
*23 _022_
*24 _023_
*25 _024_
*26 _025_
*27 _026_
*28 _027_
*29 _028_
*30 _029_
*31 _030_
*32 _031_
*33 _032_
*34 _033_
*35 _034_
*36 _035_
*37 _036_
*38 _037_
*39 _038_
*40 _039_
*41 _040_
*42 _041_
*43 _042_
*44 _043_
*45 _044_
*46 _045_
*47 _046_
*48 _047_
*49 _048_
*50 _049_
*51 _050_
*52 _051_
*53 _052_
*54 _053_
*55 _054_
*56 _055_
*57 _056_
*58 _057_
*59 _058_
*60 _059_
*61 _060_
*62 _061_
*63 _062_
*64 _063_
*227 alu_out[0]
*228 alu_out[10]
*229 alu_out[11]
*230 alu_out[12]
*231 alu_out[13]
*232 alu_out[14]
*233 alu_out[15]
*234 alu_out[16]
*235 alu_out[17]
*236 alu_out[18]
*237 alu_out[19]
*238 alu_out[1]
*239 alu_out[20]
*240 alu_out[21]
*241 alu_out[22]
*242 alu_out[23]
*243 alu_out[24]
*244 alu_out[25]
*245 alu_out[26]
*246 alu_out[27]
*247 alu_out[28]
*248 alu_out[29]
*249 alu_out[2]
*250 alu_out[30]
*251 alu_out[31]
*252 alu_out[3]
*253 alu_out[4]
*254 alu_out[5]
*255 alu_out[6]
*256 alu_out[7]
*257 alu_out[8]
*258 alu_out[9]
*97 net1
*106 net10
*107 net11
*108 net12
*109 net13
*292 net130
*259 net131
*262 net132
*264 net133
*265 net134
*266 net135
*267 net136
*268 net137
*269 net138
*270 net139
*110 net14
*271 net140
*272 net141
*273 net142
*274 net143
*275 net144
*276 net145
*277 net146
*278 net147
*279 net148
*280 net149
*111 net15
*281 net150
*282 net151
*283 net152
*263 net153
*284 net154
*285 net155
*286 net156
*287 net157
*288 net158
*261 net159
*112 net16
*289 net160
*290 net161
*291 net162
*260 net163
*293 net164
*294 net165
*295 net166
*296 net167
*297 net168
*298 net169
*113 net17
*299 net170
*300 net171
*301 net172
*302 net173
*303 net174
*304 net175
*305 net176
*306 net177
*307 net178
*308 net179
*114 net18
*115 net19
*98 net2
*116 net20
*117 net21
*118 net22
*119 net23
*120 net24
*121 net25
*122 net26
*123 net27
*124 net28
*125 net29
*99 net3
*126 net30
*127 net31
*128 net32
*129 net33
*130 net34
*131 net35
*132 net36
*133 net37
*134 net38
*135 net39
*100 net4
*136 net40
*137 net41
*138 net42
*139 net43
*140 net44
*141 net45
*142 net46
*143 net47
*144 net48
*145 net49
*101 net5
*146 net50
*147 net51
*148 net52
*149 net53
*150 net54
*151 net55
*152 net56
*153 net57
*154 net58
*155 net59
*102 net6
*156 net60
*157 net61
*158 net62
*159 net63
*160 net64
*65 net65
*66 net66
*67 net67
*68 net68
*69 net69
*103 net7
*70 net70
*71 net71
*72 net72
*73 net73
*74 net74
*75 net75
*76 net76
*77 net77
*78 net78
*79 net79
*104 net8
*80 net80
*81 net81
*82 net82
*83 net83
*84 net84
*85 net85
*86 net86
*87 net87
*88 net88
*89 net89
*105 net9
*90 net90
*91 net91
*92 net92
*93 net93
*94 net94
*95 net95
*96 net96
*163 reg_op1[0]
*164 reg_op1[10]
*165 reg_op1[11]
*166 reg_op1[12]
*167 reg_op1[13]
*168 reg_op1[14]
*169 reg_op1[15]
*170 reg_op1[16]
*171 reg_op1[17]
*172 reg_op1[18]
*173 reg_op1[19]
*174 reg_op1[1]
*175 reg_op1[20]
*176 reg_op1[21]
*177 reg_op1[22]
*178 reg_op1[23]
*179 reg_op1[24]
*180 reg_op1[25]
*181 reg_op1[26]
*182 reg_op1[27]
*183 reg_op1[28]
*184 reg_op1[29]
*185 reg_op1[2]
*186 reg_op1[30]
*187 reg_op1[31]
*188 reg_op1[3]
*189 reg_op1[4]
*190 reg_op1[5]
*191 reg_op1[6]
*192 reg_op1[7]
*193 reg_op1[8]
*194 reg_op1[9]
*195 reg_op2[0]
*196 reg_op2[10]
*197 reg_op2[11]
*198 reg_op2[12]
*199 reg_op2[13]
*200 reg_op2[14]
*201 reg_op2[15]
*202 reg_op2[16]
*203 reg_op2[17]
*204 reg_op2[18]
*205 reg_op2[19]
*206 reg_op2[1]
*207 reg_op2[20]
*208 reg_op2[21]
*209 reg_op2[22]
*210 reg_op2[23]
*211 reg_op2[24]
*212 reg_op2[25]
*213 reg_op2[26]
*214 reg_op2[27]
*215 reg_op2[28]
*216 reg_op2[29]
*217 reg_op2[2]
*218 reg_op2[30]
*219 reg_op2[31]
*220 reg_op2[3]
*221 reg_op2[4]
*222 reg_op2[5]
*223 reg_op2[6]
*224 reg_op2[7]
*225 reg_op2[8]
*226 reg_op2[9]
*601 FILLER_0_0
*618 FILLER_0_107
*619 FILLER_0_115
*620 FILLER_0_119
*603 FILLER_0_12
*621 FILLER_0_121
*622 FILLER_0_129
*623 FILLER_0_137
*604 FILLER_0_21
*605 FILLER_0_29
*606 FILLER_0_31
*607 FILLER_0_39
*608 FILLER_0_47
*609 FILLER_0_55
*610 FILLER_0_59
*611 FILLER_0_61
*612 FILLER_0_69
*613 FILLER_0_77
*602 FILLER_0_8
*614 FILLER_0_85
*615 FILLER_0_89
*616 FILLER_0_91
*617 FILLER_0_99
*745 FILLER_10_0
*755 FILLER_10_108
*756 FILLER_10_117
*757 FILLER_10_128
*758 FILLER_10_137
*747 FILLER_10_16
*748 FILLER_10_26
*749 FILLER_10_47
*750 FILLER_10_49
*751 FILLER_10_69
*752 FILLER_10_77
*746 FILLER_10_8
*753 FILLER_10_91
*754 FILLER_10_93
*768 FILLER_11_103
*769 FILLER_11_105
*770 FILLER_11_114
*771 FILLER_11_118
*772 FILLER_11_121
*773 FILLER_11_129
*759 FILLER_11_37
*760 FILLER_11_46
*761 FILLER_11_50
*762 FILLER_11_59
*763 FILLER_11_61
*764 FILLER_11_72
*765 FILLER_11_80
*766 FILLER_11_84
*767 FILLER_11_99
*774 FILLER_12_0
*786 FILLER_12_107
*776 FILLER_12_12
*777 FILLER_12_28
*778 FILLER_12_31
*779 FILLER_12_39
*780 FILLER_12_47
*781 FILLER_12_55
*782 FILLER_12_59
*783 FILLER_12_67
*784 FILLER_12_75
*775 FILLER_12_8
*785 FILLER_12_91
*796 FILLER_13_101
*797 FILLER_13_135
*798 FILLER_13_139
*787 FILLER_13_23
*788 FILLER_13_47
*789 FILLER_13_55
*790 FILLER_13_59
*791 FILLER_13_61
*792 FILLER_13_69
*793 FILLER_13_77
*794 FILLER_13_85
*795 FILLER_13_93
*799 FILLER_14_0
*813 FILLER_14_101
*814 FILLER_14_108
*815 FILLER_14_140
*800 FILLER_14_16
*801 FILLER_14_27
*802 FILLER_14_29
*803 FILLER_14_37
*804 FILLER_14_39
*805 FILLER_14_53
*806 FILLER_14_61
*807 FILLER_14_69
*808 FILLER_14_77
*809 FILLER_14_85
*810 FILLER_14_89
*811 FILLER_14_91
*812 FILLER_14_99
*825 FILLER_15_101
*826 FILLER_15_117
*827 FILLER_15_119
*828 FILLER_15_136
*829 FILLER_15_140
*816 FILLER_15_41
*817 FILLER_15_45
*818 FILLER_15_52
*819 FILLER_15_61
*820 FILLER_15_69
*821 FILLER_15_77
*822 FILLER_15_85
*823 FILLER_15_89
*824 FILLER_15_99
*843 FILLER_16_106
*844 FILLER_16_115
*845 FILLER_16_117
*846 FILLER_16_125
*847 FILLER_16_134
*848 FILLER_16_138
*849 FILLER_16_140
*830 FILLER_16_16
*831 FILLER_16_18
*832 FILLER_16_26
*833 FILLER_16_31
*834 FILLER_16_35
*835 FILLER_16_42
*836 FILLER_16_52
*837 FILLER_16_60
*838 FILLER_16_68
*839 FILLER_16_76
*840 FILLER_16_84
*841 FILLER_16_88
*842 FILLER_16_91
*859 FILLER_17_101
*860 FILLER_17_121
*861 FILLER_17_129
*862 FILLER_17_137
*851 FILLER_17_17
*852 FILLER_17_27
*853 FILLER_17_37
*854 FILLER_17_61
*855 FILLER_17_69
*856 FILLER_17_77
*857 FILLER_17_81
*858 FILLER_17_83
*850 FILLER_17_9
*873 FILLER_18_109
*864 FILLER_18_12
*874 FILLER_18_124
*875 FILLER_18_132
*876 FILLER_18_140
*865 FILLER_18_31
*866 FILLER_18_35
*867 FILLER_18_44
*868 FILLER_18_65
*869 FILLER_18_73
*863 FILLER_18_8
*870 FILLER_18_81
*871 FILLER_18_91
*872 FILLER_18_95
*877 FILLER_19_0
*886 FILLER_19_108
*887 FILLER_19_117
*888 FILLER_19_119
*889 FILLER_19_125
*890 FILLER_19_129
*891 FILLER_19_131
*878 FILLER_19_43
*879 FILLER_19_47
*880 FILLER_19_49
*881 FILLER_19_56
*882 FILLER_19_61
*883 FILLER_19_69
*884 FILLER_19_77
*885 FILLER_19_85
*635 FILLER_1_113
*636 FILLER_1_117
*637 FILLER_1_119
*638 FILLER_1_121
*639 FILLER_1_129
*625 FILLER_1_20
*626 FILLER_1_28
*627 FILLER_1_58
*628 FILLER_1_61
*629 FILLER_1_69
*630 FILLER_1_77
*624 FILLER_1_8
*631 FILLER_1_85
*632 FILLER_1_93
*633 FILLER_1_97
*634 FILLER_1_99
*892 FILLER_20_12
*899 FILLER_20_131
*893 FILLER_20_21
*894 FILLER_20_23
*895 FILLER_20_66
*896 FILLER_20_74
*897 FILLER_20_82
*898 FILLER_20_91
*910 FILLER_21_108
*911 FILLER_21_121
*901 FILLER_21_14
*912 FILLER_21_140
*902 FILLER_21_30
*903 FILLER_21_39
*900 FILLER_21_4
*904 FILLER_21_56
*905 FILLER_21_61
*906 FILLER_21_69
*907 FILLER_21_77
*908 FILLER_21_85
*909 FILLER_21_89
*913 FILLER_22_0
*928 FILLER_22_107
*929 FILLER_22_115
*930 FILLER_22_119
*931 FILLER_22_121
*932 FILLER_22_133
*915 FILLER_22_16
*916 FILLER_22_31
*917 FILLER_22_39
*918 FILLER_22_47
*914 FILLER_22_5
*919 FILLER_22_55
*920 FILLER_22_59
*921 FILLER_22_61
*922 FILLER_22_69
*923 FILLER_22_77
*924 FILLER_22_85
*925 FILLER_22_89
*926 FILLER_22_91
*927 FILLER_22_99
*641 FILLER_2_10
*653 FILLER_2_115
*654 FILLER_2_123
*642 FILLER_2_19
*643 FILLER_2_38
*644 FILLER_2_47
*645 FILLER_2_61
*646 FILLER_2_69
*647 FILLER_2_73
*648 FILLER_2_75
*640 FILLER_2_8
*649 FILLER_2_84
*650 FILLER_2_88
*651 FILLER_2_91
*652 FILLER_2_99
*659 FILLER_3_101
*660 FILLER_3_103
*661 FILLER_3_112
*662 FILLER_3_121
*655 FILLER_3_32
*656 FILLER_3_51
*657 FILLER_3_76
*658 FILLER_3_84
*667 FILLER_4_116
*668 FILLER_4_118
*669 FILLER_4_126
*670 FILLER_4_135
*671 FILLER_4_139
*663 FILLER_4_16
*664 FILLER_4_43
*665 FILLER_4_52
*666 FILLER_4_75
*672 FILLER_5_0
*683 FILLER_5_110
*684 FILLER_5_129
*674 FILLER_5_32
*675 FILLER_5_34
*676 FILLER_5_41
*677 FILLER_5_43
*678 FILLER_5_56
*679 FILLER_5_61
*680 FILLER_5_69
*681 FILLER_5_77
*673 FILLER_5_8
*682 FILLER_5_85
*685 FILLER_6_0
*695 FILLER_6_107
*696 FILLER_6_125
*697 FILLER_6_127
*687 FILLER_6_31
*688 FILLER_6_39
*689 FILLER_6_47
*690 FILLER_6_58
*691 FILLER_6_65
*692 FILLER_6_81
*693 FILLER_6_89
*686 FILLER_6_9
*694 FILLER_6_91
*698 FILLER_7_0
*707 FILLER_7_121
*708 FILLER_7_125
*700 FILLER_7_20
*701 FILLER_7_61
*702 FILLER_7_69
*703 FILLER_7_77
*699 FILLER_7_8
*704 FILLER_7_85
*705 FILLER_7_93
*706 FILLER_7_95
*709 FILLER_8_0
*725 FILLER_8_115
*726 FILLER_8_119
*727 FILLER_8_121
*728 FILLER_8_128
*729 FILLER_8_139
*712 FILLER_8_15
*713 FILLER_8_26
*714 FILLER_8_31
*715 FILLER_8_39
*710 FILLER_8_4
*716 FILLER_8_41
*717 FILLER_8_50
*718 FILLER_8_54
*711 FILLER_8_6
*719 FILLER_8_64
*720 FILLER_8_72
*721 FILLER_8_80
*722 FILLER_8_88
*723 FILLER_8_91
*724 FILLER_8_99
*730 FILLER_9_0
*740 FILLER_9_106
*741 FILLER_9_114
*742 FILLER_9_118
*743 FILLER_9_121
*744 FILLER_9_125
*731 FILLER_9_28
*732 FILLER_9_36
*733 FILLER_9_44
*734 FILLER_9_48
*735 FILLER_9_50
*736 FILLER_9_61
*737 FILLER_9_70
*738 FILLER_9_78
*739 FILLER_9_86
*405 TAP_TAPCELL_ROW_0_0
*406 TAP_TAPCELL_ROW_0_1
*407 TAP_TAPCELL_ROW_0_2
*408 TAP_TAPCELL_ROW_0_3
*427 TAP_TAPCELL_ROW_10_22
*428 TAP_TAPCELL_ROW_10_23
*429 TAP_TAPCELL_ROW_11_24
*430 TAP_TAPCELL_ROW_11_25
*431 TAP_TAPCELL_ROW_12_26
*432 TAP_TAPCELL_ROW_12_27
*433 TAP_TAPCELL_ROW_13_28
*434 TAP_TAPCELL_ROW_13_29
*435 TAP_TAPCELL_ROW_14_30
*436 TAP_TAPCELL_ROW_14_31
*437 TAP_TAPCELL_ROW_15_32
*438 TAP_TAPCELL_ROW_15_33
*439 TAP_TAPCELL_ROW_16_34
*440 TAP_TAPCELL_ROW_16_35
*441 TAP_TAPCELL_ROW_17_36
*442 TAP_TAPCELL_ROW_17_37
*443 TAP_TAPCELL_ROW_18_38
*444 TAP_TAPCELL_ROW_18_39
*445 TAP_TAPCELL_ROW_19_40
*446 TAP_TAPCELL_ROW_19_41
*409 TAP_TAPCELL_ROW_1_4
*410 TAP_TAPCELL_ROW_1_5
*447 TAP_TAPCELL_ROW_20_42
*448 TAP_TAPCELL_ROW_20_43
*449 TAP_TAPCELL_ROW_21_44
*450 TAP_TAPCELL_ROW_21_45
*451 TAP_TAPCELL_ROW_22_46
*452 TAP_TAPCELL_ROW_22_47
*453 TAP_TAPCELL_ROW_22_48
*454 TAP_TAPCELL_ROW_22_49
*411 TAP_TAPCELL_ROW_2_6
*412 TAP_TAPCELL_ROW_2_7
*413 TAP_TAPCELL_ROW_3_8
*414 TAP_TAPCELL_ROW_3_9
*415 TAP_TAPCELL_ROW_4_10
*416 TAP_TAPCELL_ROW_4_11
*417 TAP_TAPCELL_ROW_5_12
*418 TAP_TAPCELL_ROW_5_13
*419 TAP_TAPCELL_ROW_6_14
*420 TAP_TAPCELL_ROW_6_15
*421 TAP_TAPCELL_ROW_7_16
*422 TAP_TAPCELL_ROW_7_17
*423 TAP_TAPCELL_ROW_8_18
*424 TAP_TAPCELL_ROW_8_19
*425 TAP_TAPCELL_ROW_9_20
*426 TAP_TAPCELL_ROW_9_21
*309 _064_
*310 _065_
*311 _066_
*312 _067_
*313 _068_
*314 _069_
*315 _070_
*316 _071_
*317 _072_
*318 _073_
*319 _074_
*320 _075_
*321 _076_
*322 _077_
*323 _078_
*324 _079_
*325 _080_
*326 _081_
*327 _082_
*328 _083_
*329 _084_
*330 _085_
*331 _086_
*332 _087_
*333 _088_
*334 _089_
*335 _090_
*336 _091_
*337 _092_
*338 _093_
*339 _094_
*340 _095_
*341 _096_
*342 _097_
*343 _098_
*344 _099_
*345 _100_
*346 _101_
*347 _102_
*348 _103_
*349 _104_
*350 _105_
*351 _106_
*352 _107_
*353 _108_
*354 _109_
*355 _110_
*356 _111_
*357 _112_
*358 _113_
*359 _114_
*360 _115_
*361 _116_
*362 _117_
*363 _118_
*364 _119_
*365 _120_
*366 _121_
*367 _122_
*368 _123_
*369 _124_
*370 _125_
*371 _126_
*372 _127_
*373 _128_
*374 _129_
*375 _130_
*376 _131_
*377 _132_
*378 _133_
*379 _134_
*380 _135_
*381 _136_
*382 _137_
*383 _138_
*384 _139_
*385 _140_
*386 _141_
*387 _142_
*388 _143_
*389 _144_
*390 _145_
*391 _146_
*392 _147_
*393 _148_
*394 _149_
*395 _150_
*396 _151_
*397 _152_
*398 _153_
*399 _154_
*400 _155_
*401 _156_
*402 _157_
*403 _158_
*404 _159_
*455 input1
*464 input10
*465 input11
*466 input12
*467 input13
*468 input14
*469 input15
*470 input16
*471 input17
*472 input18
*473 input19
*456 input2
*474 input20
*475 input21
*476 input22
*477 input23
*478 input24
*479 input25
*480 input26
*481 input27
*482 input28
*483 input29
*457 input3
*484 input30
*485 input31
*486 input32
*487 input33
*488 input34
*489 input35
*490 input36
*491 input37
*492 input38
*493 input39
*458 input4
*494 input40
*495 input41
*496 input42
*497 input43
*498 input44
*499 input45
*500 input46
*501 input47
*502 input48
*503 input49
*459 input5
*504 input50
*505 input51
*506 input52
*507 input53
*508 input54
*509 input55
*510 input56
*511 input57
*512 input58
*513 input59
*460 input6
*514 input60
*515 input61
*516 input62
*517 input63
*518 input64
*461 input7
*462 input8
*463 input9
*519 output65
*520 output66
*521 output67
*522 output68
*523 output69
*524 output70
*525 output71
*526 output72
*527 output73
*528 output74
*529 output75
*530 output76
*531 output77
*532 output78
*533 output79
*534 output80
*535 output81
*536 output82
*537 output83
*538 output84
*539 output85
*540 output86
*541 output87
*542 output88
*543 output89
*544 output90
*545 output91
*546 output92
*547 output93
*548 output94
*549 output95
*550 output96
*584 place130
*551 place131
*554 place132
*556 place133
*557 place134
*558 place135
*559 place136
*560 place137
*561 place138
*562 place139
*563 place140
*564 place141
*565 place142
*566 place143
*567 place144
*568 place145
*569 place146
*570 place147
*571 place148
*572 place149
*573 place150
*574 place151
*575 place152
*555 place153
*576 place154
*577 place155
*578 place156
*579 place157
*580 place158
*553 place159
*581 place160
*582 place161
*583 rebuffer162
*552 rebuffer163
*585 rebuffer164
*586 rebuffer165
*587 rebuffer166
*588 rebuffer167
*589 rebuffer168
*590 rebuffer169
*591 rebuffer170
*592 rebuffer171
*593 rebuffer172
*594 rebuffer173
*595 rebuffer174
*596 rebuffer175
*597 rebuffer176
*598 rebuffer177
*599 rebuffer178
*600 rebuffer179

*PORTS
alu_out[0] O
alu_out[10] O
alu_out[11] O
alu_out[12] O
alu_out[13] O
alu_out[14] O
alu_out[15] O
alu_out[16] O
alu_out[17] O
alu_out[18] O
alu_out[19] O
alu_out[1] O
alu_out[20] O
alu_out[21] O
alu_out[22] O
alu_out[23] O
alu_out[24] O
alu_out[25] O
alu_out[26] O
alu_out[27] O
alu_out[28] O
alu_out[29] O
alu_out[2] O
alu_out[30] O
alu_out[31] O
alu_out[3] O
alu_out[4] O
alu_out[5] O
alu_out[6] O
alu_out[7] O
alu_out[8] O
alu_out[9] O
reg_op1[0] I
reg_op1[10] I
reg_op1[11] I
reg_op1[12] I
reg_op1[13] I
reg_op1[14] I
reg_op1[15] I
reg_op1[16] I
reg_op1[17] I
reg_op1[18] I
reg_op1[19] I
reg_op1[1] I
reg_op1[20] I
reg_op1[21] I
reg_op1[22] I
reg_op1[23] I
reg_op1[24] I
reg_op1[25] I
reg_op1[26] I
reg_op1[27] I
reg_op1[28] I
reg_op1[29] I
reg_op1[2] I
reg_op1[30] I
reg_op1[31] I
reg_op1[3] I
reg_op1[4] I
reg_op1[5] I
reg_op1[6] I
reg_op1[7] I
reg_op1[8] I
reg_op1[9] I
reg_op2[0] I
reg_op2[10] I
reg_op2[11] I
reg_op2[12] I
reg_op2[13] I
reg_op2[14] I
reg_op2[15] I
reg_op2[16] I
reg_op2[17] I
reg_op2[18] I
reg_op2[19] I
reg_op2[1] I
reg_op2[20] I
reg_op2[21] I
reg_op2[22] I
reg_op2[23] I
reg_op2[24] I
reg_op2[25] I
reg_op2[26] I
reg_op2[27] I
reg_op2[28] I
reg_op2[29] I
reg_op2[2] I
reg_op2[30] I
reg_op2[31] I
reg_op2[3] I
reg_op2[4] I
reg_op2[5] I
reg_op2[6] I
reg_op2[7] I
reg_op2[8] I
reg_op2[9] I

*D_NET *1 0.000260738
*CONN
*I *391:A I *D sky130_fd_sc_hd__xnor2_1
*I *312:Y O *D sky130_fd_sc_hd__xnor2_1
*CAP
1 *391:A 0.000130369
2 *312:Y 0.000130369
*RES
1 *312:Y *391:A 21.3195 
*END

*D_NET *2 0.000597844
*CONN
*I *317:B1 I *D sky130_fd_sc_hd__o21ai_2
*I *316:A I *D sky130_fd_sc_hd__lpflow_isobufsrc_1
*I *313:Y O *D sky130_fd_sc_hd__nand2_2
*CAP
1 *317:B1 0.000198156
2 *316:A 0
3 *313:Y 2.10288e-05
4 *2:6 0.000219185
5 *317:B1 alu_out[3] 2.93876e-05
6 *317:B1 *316:SLEEP 6.36477e-05
7 *317:B1 *317:A2 0
8 *317:B1 *477:A 0
9 *317:B1 *151:12 0
10 *2:6 *316:SLEEP 6.64392e-05
*RES
1 *313:Y *2:6 9.97254 
2 *2:6 *316:A 9.24915 
3 *2:6 *317:B1 22.8808 
*END

*D_NET *3 0.00184496
*CONN
*I *555:A I *D sky130_fd_sc_hd__buf_4
*I *317:A2 I *D sky130_fd_sc_hd__o21ai_2
*I *314:Y O *D sky130_fd_sc_hd__nand2_2
*CAP
1 *555:A 0.000121825
2 *317:A2 0.000197257
3 *314:Y 0.000143252
4 *3:8 0.000462333
5 *317:A2 alu_out[3] 3.34949e-05
6 *317:A2 *316:SLEEP 0.000120738
7 *317:A2 *317:A1 0.000203854
8 *317:A2 *588:A 0.000117277
9 *555:A *316:SLEEP 0.000240707
10 *555:A *587:A 0.000170207
11 *555:A *588:A 2.36748e-05
12 *3:8 *587:A 1.03403e-05
13 *317:B1 *317:A2 0
*RES
1 *314:Y *3:8 16.691 
2 *3:8 *317:A2 20.1489 
3 *3:8 *555:A 18.7961 
*END

*D_NET *4 0.000971473
*CONN
*I *588:A I *D sky130_fd_sc_hd__buf_4
*I *317:A1 I *D sky130_fd_sc_hd__o21ai_2
*I *315:Y O *D sky130_fd_sc_hd__nor2_4
*CAP
1 *588:A 8.4908e-05
2 *317:A1 0.000138853
3 *315:Y 4.78111e-05
4 *4:8 0.000271572
5 *588:A *315:A 0
6 *4:8 *313:A 1.88422e-05
7 *4:8 *313:B 6.46815e-05
8 *317:A2 *317:A1 0.000203854
9 *317:A2 *588:A 0.000117277
10 *555:A *588:A 2.36748e-05
*RES
1 *315:Y *4:8 15.0271 
2 *4:8 *317:A1 17.6574 
3 *4:8 *588:A 16.4116 
*END

*D_NET *5 0.000282995
*CONN
*I *390:B I *D sky130_fd_sc_hd__xnor2_1
*I *316:X O *D sky130_fd_sc_hd__lpflow_isobufsrc_1
*CAP
1 *390:B 0.000124537
2 *316:X 0.000124537
3 *390:B *316:SLEEP 0
4 *390:B *390:A 3.39219e-05
5 *390:B *151:12 0
*RES
1 *316:X *390:B 30.576 
*END

*D_NET *6 0.00320849
*CONN
*I *318:B I *D sky130_fd_sc_hd__maj3_2
*I *575:A I *D sky130_fd_sc_hd__buf_4
*I *317:Y O *D sky130_fd_sc_hd__o21ai_2
*CAP
1 *318:B 0.000302541
2 *575:A 0
3 *317:Y 0.000859377
4 *6:10 0.00116192
5 *318:B *391:B 7.8174e-05
6 *318:B *119:12 0
7 *6:10 alu_out[3] 0.000785523
8 *6:10 *544:A 2.09609e-05
9 *6:10 *7:8 0
*RES
1 *317:Y *6:10 28.7817 
2 *6:10 *575:A 13.7491 
3 *6:10 *318:B 21.2876 
*END

*D_NET *7 0.00230603
*CONN
*I *574:A I *D sky130_fd_sc_hd__buf_4
*I *320:A I *D sky130_fd_sc_hd__maj3_2
*I *318:X O *D sky130_fd_sc_hd__maj3_2
*CAP
1 *574:A 3.87359e-05
2 *320:A 0.000388346
3 *318:X 0.000387157
4 *7:8 0.000814238
5 *320:A *319:A 0.000277502
6 *320:A *392:B 0
7 *320:A *553:A 0.000224381
8 *320:A *577:A 2.41483e-05
9 *320:A *122:8 2.50842e-05
10 *574:A *544:A 5.0715e-05
11 *7:8 *391:B 7.57274e-05
12 *7:8 *392:B 0
13 *6:10 *7:8 0
*RES
1 *318:X *7:8 23.0557 
2 *7:8 *320:A 24.369 
3 *7:8 *574:A 15.0271 
*END

*D_NET *8 0.000256592
*CONN
*I *392:B I *D sky130_fd_sc_hd__xnor2_1
*I *319:Y O *D sky130_fd_sc_hd__xnor2_1
*CAP
1 *392:B 0.000128296
2 *319:Y 0.000128296
3 *320:A *392:B 0
4 *7:8 *392:B 0
*RES
1 *319:Y *392:B 30.1608 
*END

*D_NET *9 0.0010966
*CONN
*I *583:A I *D sky130_fd_sc_hd__buf_4
*I *321:B I *D sky130_fd_sc_hd__maj3_2
*I *320:X O *D sky130_fd_sc_hd__maj3_2
*CAP
1 *583:A 2.95552e-05
2 *321:B 0.000197961
3 *320:X 0.000198667
4 *9:10 0.000426183
5 *321:B *323:A 7.01935e-06
6 *321:B *10:6 6.91907e-05
7 *9:10 alu_out[4] 0
8 *9:10 *545:A 0.00016802
*RES
1 *320:X *9:10 23.8184 
2 *9:10 *321:B 14.4094 
3 *9:10 *583:A 9.97254 
*END

*D_NET *10 0.00140402
*CONN
*I *573:A I *D sky130_fd_sc_hd__buf_4
*I *323:A I *D sky130_fd_sc_hd__maj3_2
*I *321:X O *D sky130_fd_sc_hd__maj3_2
*CAP
1 *573:A 9.21097e-05
2 *323:A 0.000409502
3 *321:X 0.000103122
4 *10:6 0.000604733
5 *323:A *323:B 3.80652e-05
6 *323:A *123:6 5.87435e-05
7 *573:A *155:10 2.15326e-05
8 *321:B *323:A 7.01935e-06
9 *321:B *10:6 6.91907e-05
*RES
1 *321:X *10:6 11.0817 
2 *10:6 *323:A 15.9526 
3 *10:6 *573:A 20.4964 
*END

*D_NET *11 0.000286059
*CONN
*I *394:B I *D sky130_fd_sc_hd__xnor2_1
*I *322:Y O *D sky130_fd_sc_hd__xnor2_1
*CAP
1 *394:B 0.00014303
2 *322:Y 0.00014303
*RES
1 *322:Y *394:B 30.1608 
*END

*D_NET *12 0.00101
*CONN
*I *324:A I *D sky130_fd_sc_hd__maj3_2
*I *586:A I *D sky130_fd_sc_hd__buf_4
*I *323:X O *D sky130_fd_sc_hd__maj3_2
*CAP
1 *324:A 0.000242506
2 *586:A 0
3 *323:X 0.000134751
4 *12:12 0.000377256
5 *324:A *324:B 5.09499e-05
6 *324:A *395:A 0
7 *324:A *395:B 6.36477e-05
8 *324:A *580:A 5.92196e-05
9 *12:12 *395:B 6.3657e-05
10 *12:12 *576:A 1.80134e-05
*RES
1 *323:X *12:12 21.635 
2 *12:12 *586:A 9.24915 
3 *12:12 *324:A 24.601 
*END

*D_NET *13 0.0017891
*CONN
*I *325:B I *D sky130_fd_sc_hd__maj3_2
*I *572:A I *D sky130_fd_sc_hd__buf_4
*I *324:X O *D sky130_fd_sc_hd__maj3_2
*CAP
1 *325:B 0.000305657
2 *572:A 0.000120515
3 *324:X 0.000359752
4 *13:14 0.000785924
5 *325:B alu_out[15] 0
6 *325:B *325:A 0
7 *325:B *14:10 4.89392e-05
8 *13:14 *397:A 0
9 *13:14 *397:B 0
10 *13:14 *525:A 0.000168313
*RES
1 *324:X *13:14 27.3336 
2 *13:14 *572:A 12.2151 
3 *13:14 *325:B 25.2386 
*END

*D_NET *14 0.000850477
*CONN
*I *571:A I *D sky130_fd_sc_hd__buf_4
*I *327:B I *D sky130_fd_sc_hd__maj3_2
*I *325:X O *D sky130_fd_sc_hd__maj3_2
*CAP
1 *571:A 0
2 *327:B 0.000184706
3 *325:X 0.000183036
4 *14:10 0.000367743
5 *327:B *549:A 6.60521e-05
6 *325:B *14:10 4.89392e-05
*RES
1 *325:X *14:10 17.2744 
2 *14:10 *327:B 18.3808 
3 *14:10 *571:A 13.7491 
*END

*D_NET *15 0.00016385
*CONN
*I *398:B I *D sky130_fd_sc_hd__xnor2_1
*I *326:Y O *D sky130_fd_sc_hd__xnor2_1
*CAP
1 *398:B 4.84031e-05
2 *326:Y 4.84031e-05
3 *398:B *326:B 6.39055e-05
4 *398:B *398:A 3.13805e-06
*RES
1 *326:Y *398:B 20.355 
*END

*D_NET *16 0.000944546
*CONN
*I *570:A I *D sky130_fd_sc_hd__buf_4
*I *328:A I *D sky130_fd_sc_hd__maj3_2
*I *327:X O *D sky130_fd_sc_hd__maj3_2
*CAP
1 *570:A 0
2 *328:A 0.000182126
3 *327:X 0.000253623
4 *16:8 0.000435749
5 *328:A alu_out[8] 0
6 *328:A *328:B 1.88676e-05
7 *328:A *328:C 7.01935e-06
8 *16:8 alu_out[8] 0
9 *16:8 *400:B 0
10 *16:8 *492:A 4.71606e-05
11 *16:8 *549:A 0
12 *16:8 *159:10 0
*RES
1 *327:X *16:8 19.7337 
2 *16:8 *328:A 17.7138 
3 *16:8 *570:A 13.7491 
*END

*D_NET *17 0.00174699
*CONN
*I *598:A I *D sky130_fd_sc_hd__buf_4
*I *329:B I *D sky130_fd_sc_hd__maj3_2
*I *328:X O *D sky130_fd_sc_hd__maj3_2
*CAP
1 *598:A 0.000121144
2 *329:B 0.000274232
3 *328:X 7.7407e-05
4 *17:8 0.000472782
5 *329:B *330:B 6.88361e-05
6 *329:B *403:A 0.000137137
7 *329:B *569:A 0
8 *329:B *18:10 0.000117376
9 *329:B *131:10 0.000267394
10 *598:A *461:A 0
11 *598:A *569:A 0.000161956
12 *17:8 *569:A 4.87301e-05
*RES
1 *328:X *17:8 15.0271 
2 *17:8 *329:B 22.2602 
3 *17:8 *598:A 16.9985 
*END

*D_NET *18 0.00100444
*CONN
*I *330:A I *D sky130_fd_sc_hd__maj3_2
*I *599:A I *D sky130_fd_sc_hd__buf_4
*I *329:X O *D sky130_fd_sc_hd__maj3_2
*CAP
1 *330:A 0
2 *599:A 0.000143684
3 *329:X 9.70457e-05
4 *18:10 0.00024073
5 *599:A *403:A 2.9463e-05
6 *599:A *459:A 0
7 *599:A *568:A 6.27782e-05
8 *599:A *131:10 1.09738e-05
9 *18:10 *330:B 0.000227791
10 *18:10 *131:10 7.45998e-05
11 *329:B *18:10 0.000117376
*RES
1 *329:X *18:10 13.4931 
2 *18:10 *599:A 22.0503 
3 *18:10 *330:A 9.24915 
*END

*D_NET *19 0.00135975
*CONN
*I *595:A I *D sky130_fd_sc_hd__buf_4
*I *332:B I *D sky130_fd_sc_hd__maj3_2
*I *330:X O *D sky130_fd_sc_hd__maj3_2
*CAP
1 *595:A 0.00034085
2 *332:B 0
3 *330:X 0.000206568
4 *19:8 0.000547418
5 *595:A *332:C 0
6 *595:A *491:A 0.000187618
7 *595:A *567:A 0
8 *595:A *21:10 5.0715e-05
9 *19:8 *332:A 2.65831e-05
*RES
1 *330:X *19:8 13.7342 
2 *19:8 *332:B 9.24915 
3 *19:8 *595:A 27.4864 
*END

*D_NET *20 0.000215902
*CONN
*I *404:B I *D sky130_fd_sc_hd__xnor2_1
*I *331:Y O *D sky130_fd_sc_hd__xnor2_1
*CAP
1 *404:B 0.000107951
2 *331:Y 0.000107951
3 *404:B alu_out[12] 0
4 *404:B *567:A 0
*RES
1 *331:Y *404:B 30.1608 
*END

*D_NET *21 0.00143403
*CONN
*I *596:A I *D sky130_fd_sc_hd__buf_4
*I *335:A I *D sky130_fd_sc_hd__maj3_2
*I *332:X O *D sky130_fd_sc_hd__maj3_2
*CAP
1 *596:A 0.000238936
2 *335:A 0
3 *332:X 0.000328431
4 *21:10 0.000567367
5 *596:A *333:A 5.03545e-06
6 *596:A *566:A 6.72595e-05
7 *596:A *101:10 1.59966e-05
8 *596:A *303:16 0.000111658
9 *21:10 *333:A 4.86366e-05
10 *21:10 *567:A 0
11 *595:A *21:10 5.0715e-05
*RES
1 *332:X *21:10 19.4928 
2 *21:10 *335:A 13.7491 
3 *21:10 *596:A 20.5992 
*END

*D_NET *22 0.00050169
*CONN
*I *334:B I *D sky130_fd_sc_hd__xnor2_1
*I *333:Y O *D sky130_fd_sc_hd__xnor2_1
*CAP
1 *334:B 0.000178496
2 *333:Y 0.000178496
3 *334:B alu_out[16] 4.28856e-07
4 *334:B *526:A 0.000144269
*RES
1 *333:Y *334:B 31.4388 
*END

*D_NET *23 0.00161326
*CONN
*I *338:A I *D sky130_fd_sc_hd__maj3_2
*I *565:A I *D sky130_fd_sc_hd__buf_4
*I *335:X O *D sky130_fd_sc_hd__maj3_2
*CAP
1 *338:A 0.000343953
2 *565:A 3.91232e-05
3 *335:X 0.000262084
4 *23:10 0.00064516
5 *338:A *338:B 4.24529e-05
6 *338:A *524:A 0
7 *338:A *526:A 0
8 *338:A *25:14 4.15559e-05
9 *565:A *337:A 0.000114584
10 *23:10 *566:A 3.00084e-05
11 *23:10 *303:16 9.43419e-05
*RES
1 *335:X *23:10 20.0418 
2 *23:10 *565:A 15.0271 
3 *23:10 *338:A 21.8719 
*END

*D_NET *24 0.000337559
*CONN
*I *337:B I *D sky130_fd_sc_hd__xnor2_1
*I *336:Y O *D sky130_fd_sc_hd__xnor2_1
*CAP
1 *337:B 0.00016878
2 *336:Y 0.00016878
3 *337:B *461:A 0
4 *337:B *524:A 0
*RES
1 *336:Y *337:B 31.4388 
*END

*D_NET *25 0.00157526
*CONN
*I *564:A I *D sky130_fd_sc_hd__buf_4
*I *341:A I *D sky130_fd_sc_hd__maj3_2
*I *338:X O *D sky130_fd_sc_hd__maj3_2
*CAP
1 *564:A 0.000129416
2 *341:A 0.000113097
3 *338:X 0.000435615
4 *25:14 0.000678129
5 *564:A alu_out[14] 0
6 *564:A *339:A 7.10524e-05
7 *564:A *343:A 0
8 *564:A *103:10 1.12533e-05
9 *25:14 alu_out[14] 5.35836e-05
10 *25:14 *526:A 0
11 *25:14 *27:10 4.15559e-05
12 *25:14 *103:10 0
13 *338:A *25:14 4.15559e-05
*RES
1 *338:X *25:14 28.0382 
2 *25:14 *341:A 11.6605 
3 *25:14 *564:A 21.7421 
*END

*D_NET *26 0.000275298
*CONN
*I *340:B I *D sky130_fd_sc_hd__xnor2_1
*I *339:Y O *D sky130_fd_sc_hd__xnor2_1
*CAP
1 *340:B 7.93225e-05
2 *339:Y 7.93225e-05
3 *340:B *340:A 0.000116652
*RES
1 *339:Y *340:B 29.7455 
*END

*D_NET *27 0.00131553
*CONN
*I *344:B I *D sky130_fd_sc_hd__maj3_2
*I *563:A I *D sky130_fd_sc_hd__buf_4
*I *341:X O *D sky130_fd_sc_hd__maj3_2
*CAP
1 *344:B 0.000264226
2 *563:A 0
3 *341:X 0.000277833
4 *27:10 0.000542059
5 *344:B *342:B 3.00174e-06
6 *344:B *343:B 1.53822e-05
7 *344:B *344:C 6.27782e-05
8 *344:B *29:8 1.05504e-05
9 *344:B *104:10 4.92146e-05
10 *27:10 *343:A 4.05654e-05
11 *27:10 *343:B 8.36429e-06
12 *25:14 *27:10 4.15559e-05
*RES
1 *341:X *27:10 18.9382 
2 *27:10 *563:A 13.7491 
3 *27:10 *344:B 20.2027 
*END

*D_NET *28 0.00104414
*CONN
*I *343:B I *D sky130_fd_sc_hd__xnor2_1
*I *342:Y O *D sky130_fd_sc_hd__xnor2_1
*CAP
1 *343:B 0.000282671
2 *342:Y 0.000282671
3 *343:B alu_out[14] 7.44044e-06
4 *343:B *342:A 0.000130777
5 *343:B *343:A 0.000148002
6 *343:B *104:10 0.000168829
7 *344:B *343:B 1.53822e-05
8 *27:10 *343:B 8.36429e-06
*RES
1 *342:Y *343:B 36.8048 
*END

*D_NET *29 0.00141461
*CONN
*I *562:A I *D sky130_fd_sc_hd__buf_4
*I *347:A I *D sky130_fd_sc_hd__maj3_2
*I *344:X O *D sky130_fd_sc_hd__maj3_2
*CAP
1 *562:A 6.44255e-05
2 *347:A 8.93751e-05
3 *344:X 0.000308495
4 *29:8 0.000462295
5 *347:A *345:B 0.000219026
6 *347:A *347:B 7.71803e-05
7 *347:A *137:10 1.03594e-05
8 *562:A *345:A 3.96696e-05
9 *562:A *105:6 2.57986e-05
10 *29:8 *345:A 0.000107432
11 *344:B *29:8 1.05504e-05
*RES
1 *344:X *29:8 17.2065 
2 *29:8 *347:A 22.1574 
3 *29:8 *562:A 11.0817 
*END

*D_NET *30 0.000164093
*CONN
*I *346:B I *D sky130_fd_sc_hd__xnor2_1
*I *345:Y O *D sky130_fd_sc_hd__xnor2_1
*CAP
1 *346:B 7.95226e-05
2 *345:Y 7.95226e-05
3 *346:B *345:B 5.04829e-06
4 *346:B *527:A 0
*RES
1 *345:Y *346:B 20.355 
*END

*D_NET *31 0.000747778
*CONN
*I *589:A I *D sky130_fd_sc_hd__buf_4
*I *350:A I *D sky130_fd_sc_hd__maj3_2
*I *347:X O *D sky130_fd_sc_hd__maj3_2
*CAP
1 *589:A 0
2 *350:A 0.000110936
3 *347:X 0.000173848
4 *31:8 0.000284784
5 *350:A *348:A 4.68256e-05
6 *350:A *350:B 0.000126335
7 *350:A *106:8 5.04829e-06
*RES
1 *347:X *31:8 13.3243 
2 *31:8 *350:A 22.0503 
3 *31:8 *589:A 9.24915 
*END

*D_NET *32 0.000784867
*CONN
*I *349:B I *D sky130_fd_sc_hd__xnor2_1
*I *348:Y O *D sky130_fd_sc_hd__xnor2_1
*CAP
1 *349:B 0.000287007
2 *348:Y 0.000287007
3 *349:B *348:B 0.000123465
4 *349:B *350:B 8.36429e-06
5 *349:B *33:10 7.01935e-06
6 *349:B *138:12 7.20028e-05
*RES
1 *348:Y *349:B 35.3154 
*END

*D_NET *33 0.00260372
*CONN
*I *552:A I *D sky130_fd_sc_hd__buf_4
*I *353:A I *D sky130_fd_sc_hd__maj3_2
*I *350:X O *D sky130_fd_sc_hd__maj3_2
*CAP
1 *552:A 0
2 *353:A 0.000169804
3 *350:X 0.000752362
4 *33:10 0.000922166
5 *353:A *354:A 2.81678e-06
6 *353:A *355:B 4.61908e-05
7 *353:A *356:B 5.03545e-06
8 *353:A *560:A 0.000160617
9 *353:A *561:A 7.03112e-06
10 *353:A *137:10 0
11 *33:10 *348:B 1.36606e-05
12 *33:10 *354:A 9.09129e-05
13 *33:10 *356:B 9.66418e-05
14 *33:10 *109:16 0.000319902
15 *33:10 *137:10 0
16 *33:10 *138:12 7.28567e-06
17 *33:10 *141:10 2.2766e-06
18 *349:B *33:10 7.01935e-06
*RES
1 *350:X *33:10 33.1961 
2 *33:10 *353:A 18.6595 
3 *33:10 *552:A 13.7491 
*END

*D_NET *34 0.000386731
*CONN
*I *352:B I *D sky130_fd_sc_hd__xnor2_1
*I *351:Y O *D sky130_fd_sc_hd__xnor2_1
*CAP
1 *352:B 0.000160836
2 *351:Y 0.000160836
3 *352:B *531:A 6.50586e-05
4 *352:B *74:12 0
*RES
1 *351:Y *352:B 30.8842 
*END

*D_NET *35 0.00138245
*CONN
*I *590:A I *D sky130_fd_sc_hd__buf_4
*I *356:B I *D sky130_fd_sc_hd__maj3_2
*I *353:X O *D sky130_fd_sc_hd__maj3_2
*CAP
1 *590:A 0
2 *356:B 0.000243012
3 *353:X 0.000125673
4 *35:12 0.000368685
5 *356:B *354:B 0.000232462
6 *356:B *355:B 5.04829e-06
7 *356:B *356:C 6.27718e-05
8 *356:B *37:8 5.04829e-06
9 *356:B *109:16 0.000112228
10 *356:B *141:10 2.03171e-05
11 *35:12 *559:A 3.00174e-06
12 *35:12 *560:A 0.000102525
13 *35:12 *561:A 0
14 *353:A *356:B 5.03545e-06
15 *33:10 *356:B 9.66418e-05
*RES
1 *353:X *35:12 21.7744 
2 *35:12 *356:B 26.3772 
3 *35:12 *590:A 9.24915 
*END

*D_NET *36 0.00104829
*CONN
*I *355:B I *D sky130_fd_sc_hd__xnor2_1
*I *354:Y O *D sky130_fd_sc_hd__xnor2_1
*CAP
1 *355:B 0.000319437
2 *354:Y 0.000319437
3 *355:B *354:A 6.60095e-06
4 *355:B *354:B 4.25508e-05
5 *355:B *561:A 0.000309031
6 *353:A *355:B 4.61908e-05
7 *356:B *355:B 5.04829e-06
*RES
1 *354:Y *355:B 35.4548 
*END

*D_NET *37 0.000870816
*CONN
*I *359:B I *D sky130_fd_sc_hd__maj3_2
*I *597:A I *D sky130_fd_sc_hd__buf_4
*I *356:X O *D sky130_fd_sc_hd__maj3_2
*CAP
1 *359:B 0.000261735
2 *597:A 2.12936e-05
3 *356:X 0.000108328
4 *37:8 0.000391357
5 *359:B *559:A 7.19887e-05
6 *359:B *39:8 3.13805e-06
7 *37:8 *356:C 7.92757e-06
8 *356:B *37:8 5.04829e-06
*RES
1 *356:X *37:8 11.1059 
2 *37:8 *597:A 9.82786 
3 *37:8 *359:B 15.5427 
*END

*D_NET *38 0.00128478
*CONN
*I *358:B I *D sky130_fd_sc_hd__xnor2_1
*I *357:Y O *D sky130_fd_sc_hd__xnor2_1
*CAP
1 *358:B 0.000367054
2 *357:Y 0.000367054
3 *358:B *358:A 0.000141896
4 *358:B *359:A 1.24817e-05
5 *358:B *359:C 7.78913e-05
6 *358:B *467:A 9.34865e-05
7 *358:B *500:A 2.37478e-05
8 *358:B *74:12 0.000112367
9 *358:B *110:8 3.98606e-05
10 *358:B *138:12 4.89392e-05
*RES
1 *357:Y *358:B 39.7438 
*END

*D_NET *39 0.000664751
*CONN
*I *362:A I *D sky130_fd_sc_hd__maj3_2
*I *600:A I *D sky130_fd_sc_hd__buf_4
*I *359:X O *D sky130_fd_sc_hd__maj3_2
*CAP
1 *362:A 6.3178e-05
2 *600:A 8.47733e-05
3 *359:X 0.000107995
4 *39:8 0.000255946
5 *600:A *358:A 7.21985e-05
6 *600:A *532:A 1.03594e-05
7 *600:A *74:12 6.7163e-05
8 *359:B *39:8 3.13805e-06
*RES
1 *359:X *39:8 11.6605 
2 *39:8 *600:A 21.3269 
3 *39:8 *362:A 10.5271 
*END

*D_NET *40 0.00036933
*CONN
*I *361:B I *D sky130_fd_sc_hd__xnor2_1
*I *360:Y O *D sky130_fd_sc_hd__xnor2_1
*CAP
1 *361:B 0.000134824
2 *360:Y 0.000134824
3 *361:B *360:A 5.04829e-06
4 *361:B *361:A 9.46346e-05
*RES
1 *360:Y *361:B 22.0188 
*END

*D_NET *41 0.00268668
*CONN
*I *365:A I *D sky130_fd_sc_hd__maj3_2
*I *557:A I *D sky130_fd_sc_hd__buf_4
*I *362:X O *D sky130_fd_sc_hd__maj3_2
*CAP
1 *365:A 0.000315794
2 *557:A 0
3 *362:X 0.000718805
4 *41:10 0.0010346
5 *365:A alu_out[22] 0
6 *365:A *363:A 0.000110645
7 *365:A *43:10 3.82228e-05
8 *365:A *113:14 8.96447e-06
9 *365:A *144:12 0.000181596
10 *41:10 *362:C 0.000144327
11 *41:10 *534:A 2.16355e-05
12 *41:10 *144:12 0.000112088
*RES
1 *362:X *41:10 25.5934 
2 *41:10 *557:A 13.7491 
3 *41:10 *365:A 22.0056 
*END

*D_NET *42 0.000330016
*CONN
*I *364:B I *D sky130_fd_sc_hd__xnor2_1
*I *363:Y O *D sky130_fd_sc_hd__xnor2_1
*CAP
1 *364:B 4.08511e-05
2 *363:Y 4.08511e-05
3 *364:B *533:A 0.000124157
4 *364:B *535:A 0.000124157
*RES
1 *363:Y *364:B 29.7455 
*END

*D_NET *43 0.0014946
*CONN
*I *556:A I *D sky130_fd_sc_hd__buf_4
*I *368:A I *D sky130_fd_sc_hd__maj3_2
*I *365:X O *D sky130_fd_sc_hd__maj3_2
*CAP
1 *556:A 0
2 *368:A 0.000295111
3 *365:X 0.000402903
4 *43:10 0.000698015
5 *368:A *367:A 6.035e-05
6 *368:A *74:12 0
7 *365:A *43:10 3.82228e-05
*RES
1 *365:X *43:10 18.4242 
2 *43:10 *368:A 25.2932 
3 *43:10 *556:A 9.24915 
*END

*D_NET *44 0.00105177
*CONN
*I *367:B I *D sky130_fd_sc_hd__xnor2_1
*I *366:Y O *D sky130_fd_sc_hd__xnor2_1
*CAP
1 *367:B 0.000347187
2 *366:Y 0.000347187
3 *367:B *464:A 0.000357395
*RES
1 *366:Y *367:B 34.2118 
*END

*D_NET *45 0.00165978
*CONN
*I *592:A I *D sky130_fd_sc_hd__buf_4
*I *371:B I *D sky130_fd_sc_hd__maj3_2
*I *368:X O *D sky130_fd_sc_hd__maj3_2
*CAP
1 *592:A 0
2 *371:B 0.000102452
3 *368:X 0.000474358
4 *45:12 0.000576811
5 *371:B *369:B 5.28741e-05
6 *371:B *370:A 6.50727e-05
7 *371:B *146:6 6.66272e-05
8 *45:12 *370:A 0.000106215
9 *45:12 *472:A 0.000139234
10 *45:12 *503:A 0
11 *45:12 *504:A 8.62625e-06
12 *45:12 *146:6 6.75138e-05
*RES
1 *368:X *45:12 30.4975 
2 *45:12 *371:B 12.7456 
3 *45:12 *592:A 9.24915 
*END

*D_NET *46 0.000168024
*CONN
*I *370:B I *D sky130_fd_sc_hd__xnor2_1
*I *369:Y O *D sky130_fd_sc_hd__xnor2_1
*CAP
1 *370:B 6.82052e-05
2 *369:Y 6.82052e-05
3 *370:B *114:8 3.16131e-05
*RES
1 *369:Y *370:B 20.355 
*END

*D_NET *47 0.000827427
*CONN
*I *374:A I *D sky130_fd_sc_hd__maj3_2
*I *554:A I *D sky130_fd_sc_hd__buf_4
*I *371:X O *D sky130_fd_sc_hd__maj3_2
*CAP
1 *374:A 7.6794e-05
2 *554:A 0
3 *371:X 0.000104712
4 *47:10 0.000181506
5 *374:A *374:B 0.000127991
6 *374:A *374:C 0.000322318
7 *374:A *49:12 1.4106e-05
8 *47:10 *376:A 0
*RES
1 *371:X *47:10 20.4964 
2 *47:10 *554:A 9.24915 
3 *47:10 *374:A 13.903 
*END

*D_NET *48 0.0010854
*CONN
*I *373:B I *D sky130_fd_sc_hd__xnor2_1
*I *372:Y O *D sky130_fd_sc_hd__xnor2_1
*CAP
1 *373:B 0.000253018
2 *372:Y 0.000253018
3 *373:B *373:A 0.000120872
4 *373:B *375:A 0
5 *373:B *507:A 0.000148779
6 *373:B *538:A 0.000309709
*RES
1 *372:Y *373:B 33.6572 
*END

*D_NET *49 0.00220292
*CONN
*I *377:A I *D sky130_fd_sc_hd__maj3_2
*I *593:A I *D sky130_fd_sc_hd__buf_4
*I *374:X O *D sky130_fd_sc_hd__maj3_2
*CAP
1 *377:A 0.000368214
2 *593:A 7.30998e-05
3 *374:X 0.000416504
4 *49:12 0.000857818
5 *377:A *375:A 0
6 *377:A *376:A 7.81926e-05
7 *377:A *377:C 0
8 *377:A *506:A 6.64671e-06
9 *377:A *585:A 0.000172023
10 *377:A *148:8 0
11 *593:A *371:A 0
12 *593:A *376:A 2.26247e-05
13 *49:12 *374:B 0.000166094
14 *49:12 *374:C 2.09463e-05
15 *49:12 *376:A 6.64671e-06
16 *374:A *49:12 1.4106e-05
*RES
1 *374:X *49:12 20.5754 
2 *49:12 *593:A 15.7888 
3 *49:12 *377:A 25.3396 
*END

*D_NET *50 0.000368805
*CONN
*I *376:B I *D sky130_fd_sc_hd__xnor2_1
*I *375:Y O *D sky130_fd_sc_hd__xnor2_1
*CAP
1 *376:B 0.000179679
2 *375:Y 0.000179679
3 *376:B *373:A 0
4 *376:B *376:A 0
5 *376:B *539:A 9.44631e-06
*RES
1 *375:Y *376:B 30.8842 
*END

*D_NET *51 0.00154852
*CONN
*I *594:A I *D sky130_fd_sc_hd__buf_4
*I *380:B I *D sky130_fd_sc_hd__maj3_2
*I *377:X O *D sky130_fd_sc_hd__maj3_2
*CAP
1 *594:A 0.00010774
2 *380:B 0.000526716
3 *377:X 0
4 *51:4 0.000634456
5 *380:B *377:B 0.000175485
6 *380:B *53:10 2.85274e-05
7 *380:B *183:15 7.55923e-05
8 *594:A *585:A 0
*RES
1 *377:X *51:4 9.24915 
2 *51:4 *380:B 18.171 
3 *51:4 *594:A 20.4964 
*END

*D_NET *52 0.000156786
*CONN
*I *379:B I *D sky130_fd_sc_hd__xnor2_1
*I *378:Y O *D sky130_fd_sc_hd__xnor2_1
*CAP
1 *379:B 7.83928e-05
2 *378:Y 7.83928e-05
*RES
1 *378:Y *379:B 20.355 
*END

*D_NET *53 0.00100607
*CONN
*I *383:B I *D sky130_fd_sc_hd__maj3_2
*I *551:A I *D sky130_fd_sc_hd__buf_4
*I *380:X O *D sky130_fd_sc_hd__maj3_2
*CAP
1 *383:B 0.000177711
2 *551:A 2.31818e-05
3 *380:X 0.000190402
4 *53:10 0.000391295
5 *383:B *382:B 0
6 *551:A *382:B 6.50586e-05
7 *53:10 *378:A 4.3116e-06
8 *53:10 *380:C 3.20069e-06
9 *53:10 *585:A 0
10 *53:10 *183:15 0.000122378
11 *380:B *53:10 2.85274e-05
*RES
1 *380:X *53:10 18.5201 
2 *53:10 *551:A 14.4725 
3 *53:10 *383:B 17.6574 
*END

*D_NET *54 0.00138015
*CONN
*I *382:B I *D sky130_fd_sc_hd__xnor2_1
*I *381:Y O *D sky130_fd_sc_hd__xnor2_1
*CAP
1 *382:B 0.000206564
2 *381:Y 0.000206564
3 *382:B *382:A 0.000228593
4 *382:B *118:10 3.05632e-05
5 *382:B *184:15 0.00064281
6 *383:B *382:B 0
7 *551:A *382:B 6.50586e-05
*RES
1 *381:Y *382:B 36.5696 
*END

*D_NET *55 0.00105343
*CONN
*I *386:B I *D sky130_fd_sc_hd__maj3_2
*I *584:A I *D sky130_fd_sc_hd__buf_4
*I *383:X O *D sky130_fd_sc_hd__maj3_2
*CAP
1 *386:B 0.000261098
2 *584:A 0
3 *383:X 0.000129175
4 *55:8 0.000390273
5 *386:B *383:C 2.58616e-05
6 *386:B *384:B 4.52563e-05
7 *386:B *385:A 0.000146652
8 *386:B *388:B 3.66316e-05
9 *386:B *510:A 0
10 *55:8 *383:C 1.84832e-05
*RES
1 *383:X *55:8 11.9257 
2 *55:8 *584:A 9.24915 
3 *55:8 *386:B 25.7876 
*END

*D_NET *56 0.000169668
*CONN
*I *385:B I *D sky130_fd_sc_hd__xnor2_1
*I *384:Y O *D sky130_fd_sc_hd__xnor2_1
*CAP
1 *385:B 8.48339e-05
2 *384:Y 8.48339e-05
*RES
1 *384:Y *385:B 20.355 
*END

*D_NET *57 0.000454872
*CONN
*I *388:B I *D sky130_fd_sc_hd__xnor2_4
*I *386:X O *D sky130_fd_sc_hd__maj3_2
*CAP
1 *388:B 0.000180029
2 *386:X 0.000180029
3 *388:B *385:A 5.03545e-06
4 *388:B *542:A 5.31465e-05
5 *386:B *388:B 3.66316e-05
*RES
1 *386:X *388:B 32.548 
*END

*D_NET *58 0.00166881
*CONN
*I *388:A I *D sky130_fd_sc_hd__xnor2_4
*I *387:Y O *D sky130_fd_sc_hd__xnor2_1
*CAP
1 *388:A 0.000672524
2 *387:Y 0.000672524
3 *388:A *387:A 0.00011588
4 *388:A *542:A 4.88507e-05
5 *388:A *186:15 0.000159032
*RES
1 *387:Y *388:A 35.1123 
*END

*D_NET *59 0.000235958
*CONN
*I *397:B I *D sky130_fd_sc_hd__xnor2_1
*I *396:Y O *D sky130_fd_sc_hd__xnor2_1
*CAP
1 *397:B 0.000117979
2 *396:Y 0.000117979
3 *397:B *397:A 0
4 *13:14 *397:B 0
*RES
1 *396:Y *397:B 30.1608 
*END

*D_NET *60 0.000550888
*CONN
*I *400:B I *D sky130_fd_sc_hd__xnor2_1
*I *399:Y O *D sky130_fd_sc_hd__xnor2_1
*CAP
1 *400:B 0.000190175
2 *399:Y 0.000190175
3 *400:B alu_out[8] 0.000139636
4 *400:B *328:C 2.84892e-05
5 *400:B *399:B 2.41274e-06
6 *16:8 *400:B 0
*RES
1 *399:Y *400:B 31.4388 
*END

*D_NET *61 0.000308452
*CONN
*I *403:B I *D sky130_fd_sc_hd__xnor2_1
*I *402:Y O *D sky130_fd_sc_hd__xnor2_1
*CAP
1 *403:B 5.53492e-05
2 *402:Y 5.53492e-05
3 *403:B *402:B 0.000168313
4 *403:B *521:A 2.94411e-05
*RES
1 *402:Y *403:B 20.9096 
*END

*D_NET *62 0.000703485
*CONN
*I *401:A I *D sky130_fd_sc_hd__xnor2_1
*I *309:Y O *D sky130_fd_sc_hd__xnor2_1
*CAP
1 *401:A 0.000141337
2 *309:Y 0.000141337
3 *401:A *128:8 0.000127683
4 *401:A *131:10 0.000169041
5 *401:A *160:10 0.000124086
*RES
1 *309:Y *401:A 31.5781 
*END

*D_NET *63 0.000201048
*CONN
*I *395:A I *D sky130_fd_sc_hd__xnor2_1
*I *310:Y O *D sky130_fd_sc_hd__xnor2_1
*CAP
1 *395:A 0.000100524
2 *310:Y 0.000100524
3 *324:A *395:A 0
*RES
1 *310:Y *395:A 29.7455 
*END

*D_NET *64 0.0003686
*CONN
*I *393:A I *D sky130_fd_sc_hd__xnor2_1
*I *311:Y O *D sky130_fd_sc_hd__xnor2_1
*CAP
1 *393:A 0.0001843
2 *311:Y 0.0001843
3 *393:A *311:B 0
*RES
1 *311:Y *393:A 31.0235 
*END

*D_NET *227 0.00207027
*CONN
*P alu_out[0] O
*I *519:X O *D sky130_fd_sc_hd__clkdlybuf4s50_1
*CAP
1 alu_out[0] 0.000905867
2 *519:X 0.000905867
3 alu_out[0] alu_out[5] 0.000112075
4 alu_out[0] *389:B 9.43222e-06
5 *455:A alu_out[0] 7.72624e-05
6 *97:8 alu_out[0] 1.91391e-05
7 *129:12 alu_out[0] 4.06282e-05
*RES
1 *519:X alu_out[0] 29.203 
*END

*D_NET *228 0.00200372
*CONN
*P alu_out[10] O
*I *520:X O *D sky130_fd_sc_hd__clkdlybuf4s50_1
*CAP
1 alu_out[10] 0.000782054
2 *520:X 0.000782054
3 alu_out[10] alu_out[8] 3.71946e-05
4 *460:A alu_out[10] 3.71946e-05
5 *520:A alu_out[10] 0.000362216
6 *98:14 alu_out[10] 3.00835e-06
*RES
1 *520:X alu_out[10] 30.8312 
*END

*D_NET *229 0.000899116
*CONN
*P alu_out[11] O
*I *521:X O *D sky130_fd_sc_hd__clkdlybuf4s50_1
*CAP
1 alu_out[11] 0.000254538
2 *521:X 0.000254538
3 *458:A alu_out[11] 0.0002524
4 *459:A alu_out[11] 6.79795e-05
5 *488:A alu_out[11] 6.96594e-05
6 *517:A alu_out[11] 0
*RES
1 *521:X alu_out[11] 21.5702 
*END

*D_NET *230 0.00333364
*CONN
*P alu_out[12] O
*I *522:X O *D sky130_fd_sc_hd__clkdlybuf4s50_1
*CAP
1 alu_out[12] 0.000839722
2 *522:X 0.000839722
3 alu_out[12] *567:A 2.02035e-05
4 *404:B alu_out[12] 0
5 *459:A alu_out[12] 0.000961521
6 *486:A alu_out[12] 0.000340578
7 *491:A alu_out[12] 0.00029037
8 *100:10 alu_out[12] 4.15236e-05
*RES
1 *522:X alu_out[12] 21.4935 
*END

*D_NET *231 0.00542338
*CONN
*P alu_out[13] O
*I *523:X O *D sky130_fd_sc_hd__clkdlybuf4s50_1
*CAP
1 alu_out[13] 0.00197973
2 *523:X 0.00197973
3 alu_out[13] alu_out[14] 0
4 alu_out[13] alu_out[9] 0.000592594
5 *460:A alu_out[13] 0.000535993
6 *462:A alu_out[13] 0
7 *492:A alu_out[13] 0.000262326
8 *137:10 alu_out[13] 7.30059e-05
*RES
1 *523:X alu_out[13] 26.5363 
*END

*D_NET *232 0.00446235
*CONN
*P alu_out[14] O
*I *524:X O *D sky130_fd_sc_hd__clkdlybuf4s50_1
*CAP
1 alu_out[14] 0.0015581
2 *524:X 0.0015581
3 alu_out[14] alu_out[15] 4.07949e-05
4 alu_out[14] *343:A 7.86825e-06
5 alu_out[13] alu_out[14] 0
6 *343:B alu_out[14] 7.44044e-06
7 *462:A alu_out[14] 0.000831297
8 *493:A alu_out[14] 0.000405166
9 *526:A alu_out[14] 0
10 *564:A alu_out[14] 0
11 *25:14 alu_out[14] 5.35836e-05
*RES
1 *524:X alu_out[14] 25.0231 
*END

*D_NET *233 0.0037821
*CONN
*P alu_out[15] O
*I *525:X O *D sky130_fd_sc_hd__clkdlybuf4s50_1
*CAP
1 alu_out[15] 0.000511709
2 *525:X 0.000511709
3 alu_out[14] alu_out[15] 4.07949e-05
4 *325:B alu_out[15] 0
5 *493:A alu_out[15] 0.0018588
6 *494:A alu_out[15] 0.000859087
*RES
1 *525:X alu_out[15] 22.1274 
*END

*D_NET *234 0.00156143
*CONN
*P alu_out[16] O
*I *526:X O *D sky130_fd_sc_hd__clkdlybuf4s50_1
*CAP
1 alu_out[16] 0.0007805
2 *526:X 0.0007805
3 alu_out[16] *303:16 0
4 *334:B alu_out[16] 4.28856e-07
*RES
1 *526:X alu_out[16] 30.8267 
*END

*D_NET *235 0.00242351
*CONN
*P alu_out[17] O
*I *527:X O *D sky130_fd_sc_hd__clkdlybuf4s50_1
*CAP
1 alu_out[17] 0.000852164
2 *527:X 0.000852164
3 alu_out[17] alu_out[25] 4.39785e-05
4 *463:A alu_out[17] 0.000312103
5 *472:A alu_out[17] 0.000142229
6 *503:A alu_out[17] 0.000220872
*RES
1 *527:X alu_out[17] 20.2369 
*END

*D_NET *236 0.000293034
*CONN
*P alu_out[18] O
*I *528:X O *D sky130_fd_sc_hd__clkdlybuf4s50_1
*CAP
1 alu_out[18] 0.000123064
2 *528:X 0.000123064
3 *471:A alu_out[18] 4.69062e-05
*RES
1 *528:X alu_out[18] 19.2972 
*END

*D_NET *237 0.000604043
*CONN
*P alu_out[19] O
*I *529:X O *D sky130_fd_sc_hd__clkdlybuf4s50_1
*CAP
1 alu_out[19] 0.000155339
2 *529:X 0.000155339
3 alu_out[19] alu_out[20] 0.000162425
4 alu_out[19] alu_out[24] 4.39785e-05
5 *495:A alu_out[19] 8.69615e-05
*RES
1 *529:X alu_out[19] 18.2481 
*END

*D_NET *238 0.00218751
*CONN
*P alu_out[1] O
*I *530:X O *D sky130_fd_sc_hd__clkdlybuf4s50_1
*CAP
1 alu_out[1] 0.00099377
2 *530:X 0.00099377
3 alu_out[1] alu_out[5] 5.32834e-05
4 *487:A alu_out[1] 0.000105642
5 *498:A alu_out[1] 4.10489e-05
*RES
1 *530:X alu_out[1] 23.1109 
*END

*D_NET *239 0.0026335
*CONN
*P alu_out[20] O
*I *531:X O *D sky130_fd_sc_hd__clkdlybuf4s50_1
*CAP
1 alu_out[20] 0.000678542
2 *531:X 0.000678542
3 alu_out[19] alu_out[20] 0.000162425
4 *465:A alu_out[20] 5.14634e-05
5 *495:A alu_out[20] 0
6 *497:A alu_out[20] 0.000949866
7 *74:12 alu_out[20] 0.000112657
*RES
1 *531:X alu_out[20] 21.4988 
*END

*D_NET *240 0.00135952
*CONN
*P alu_out[21] O
*I *532:X O *D sky130_fd_sc_hd__clkdlybuf4s50_1
*CAP
1 alu_out[21] 0.000388629
2 *532:X 0.000388629
3 alu_out[21] alu_out[23] 4.02608e-05
4 *465:A alu_out[21] 0.000136547
5 *501:A alu_out[21] 0.000405451
6 *533:A alu_out[21] 0
*RES
1 *532:X alu_out[21] 20.5211 
*END

*D_NET *241 0.00014981
*CONN
*P alu_out[22] O
*I *533:X O *D sky130_fd_sc_hd__clkdlybuf4s50_1
*CAP
1 alu_out[22] 2.94629e-05
2 *533:X 2.94629e-05
3 *365:A alu_out[22] 0
4 *469:A alu_out[22] 4.39785e-05
5 *499:A alu_out[22] 4.69062e-05
*RES
1 *533:X alu_out[22] 17.6362 
*END

*D_NET *242 0.000153921
*CONN
*P alu_out[23] O
*I *534:X O *D sky130_fd_sc_hd__clkdlybuf4s50_1
*CAP
1 alu_out[23] 3.54426e-05
2 *534:X 3.54426e-05
3 alu_out[21] alu_out[23] 4.02608e-05
4 *465:A alu_out[23] 4.27752e-05
*RES
1 *534:X alu_out[23] 17.6362 
*END

*D_NET *243 0.000456484
*CONN
*P alu_out[24] O
*I *535:X O *D sky130_fd_sc_hd__clkdlybuf4s50_1
*CAP
1 alu_out[24] 0.0001828
2 *535:X 0.0001828
3 alu_out[19] alu_out[24] 4.39785e-05
4 *471:A alu_out[24] 0
5 *495:A alu_out[24] 4.69062e-05
6 *113:14 alu_out[24] 0
*RES
1 *535:X alu_out[24] 20.9582 
*END

*D_NET *244 0.000150944
*CONN
*P alu_out[25] O
*I *536:X O *D sky130_fd_sc_hd__clkdlybuf4s50_1
*CAP
1 alu_out[25] 3.00297e-05
2 *536:X 3.00297e-05
3 alu_out[17] alu_out[25] 4.39785e-05
4 *472:A alu_out[25] 4.69062e-05
*RES
1 *536:X alu_out[25] 17.6362 
*END

*D_NET *245 0.000554783
*CONN
*P alu_out[26] O
*I *537:X O *D sky130_fd_sc_hd__clkdlybuf4s50_1
*CAP
1 alu_out[26] 0.000163451
2 *537:X 0.000163451
3 alu_out[26] alu_out[30] 0.000227881
*RES
1 *537:X alu_out[26] 18.2481 
*END

*D_NET *246 0.000500321
*CONN
*P alu_out[27] O
*I *538:X O *D sky130_fd_sc_hd__clkdlybuf4s50_1
*CAP
1 alu_out[27] 0.000101295
2 *538:X 0.000101295
3 *505:A alu_out[27] 0.000159898
4 *506:A alu_out[27] 0.000137833
*RES
1 *538:X alu_out[27] 18.0187 
*END

*D_NET *247 0.000623139
*CONN
*P alu_out[28] O
*I *539:X O *D sky130_fd_sc_hd__clkdlybuf4s50_1
*CAP
1 alu_out[28] 0.000114028
2 *539:X 0.000114028
3 *506:A alu_out[28] 0.000206747
4 *507:A alu_out[28] 0.000188336
*RES
1 *539:X alu_out[28] 18.1717 
*END

*D_NET *248 0.00129368
*CONN
*P alu_out[29] O
*I *540:X O *D sky130_fd_sc_hd__clkdlybuf4s50_1
*CAP
1 alu_out[29] 0.000336255
2 *540:X 0.000336255
3 *474:A alu_out[29] 0.000476506
4 *508:A alu_out[29] 0.000116536
5 *510:A alu_out[29] 0
6 *537:A alu_out[29] 7.13655e-06
7 *184:15 alu_out[29] 2.09907e-05
*RES
1 *540:X alu_out[29] 18.9366 
*END

*D_NET *249 0.00468331
*CONN
*P alu_out[2] O
*I *541:X O *D sky130_fd_sc_hd__clkdlybuf4s50_1
*CAP
1 alu_out[2] 0.00199139
2 *541:X 0.00199139
3 alu_out[2] alu_out[3] 0.000603575
4 *455:A alu_out[2] 9.19018e-06
5 *466:A alu_out[2] 5.94185e-05
6 *477:A alu_out[2] 2.83502e-05
*RES
1 *541:X alu_out[2] 24.3456 
*END

*D_NET *250 0.00203736
*CONN
*P alu_out[30] O
*I *542:X O *D sky130_fd_sc_hd__clkbuf_2
*CAP
1 alu_out[30] 0.00060433
2 *542:X 0.00060433
3 alu_out[30] alu_out[31] 6.67511e-05
4 alu_out[26] alu_out[30] 0.000227881
5 *511:A alu_out[30] 4.19527e-05
6 *537:A alu_out[30] 0.000455201
7 *542:A alu_out[30] 3.69151e-05
*RES
1 *542:X alu_out[30] 26.7499 
*END

*D_NET *251 0.000876096
*CONN
*P alu_out[31] O
*I *543:X O *D sky130_fd_sc_hd__buf_6
*CAP
1 alu_out[31] 0.000323777
2 *543:X 0.000323777
3 alu_out[30] alu_out[31] 6.67511e-05
4 *387:A alu_out[31] 0
5 *479:A alu_out[31] 0
6 *511:A alu_out[31] 5.15865e-05
7 *543:A alu_out[31] 0
8 *186:15 alu_out[31] 0.000110204
*RES
1 *543:X alu_out[31] 23.9415 
*END

*D_NET *252 0.00352389
*CONN
*P alu_out[3] O
*I *544:X O *D sky130_fd_sc_hd__clkdlybuf4s50_1
*CAP
1 alu_out[3] 0.00055197
2 *544:X 0.00055197
3 alu_out[2] alu_out[3] 0.000603575
4 *317:A2 alu_out[3] 3.34949e-05
5 *317:B1 alu_out[3] 2.93876e-05
6 *477:A alu_out[3] 0.000730499
7 *544:A alu_out[3] 0.000112625
8 *6:10 alu_out[3] 0.000785523
9 *151:12 alu_out[3] 0.000124844
*RES
1 *544:X alu_out[3] 30.0662 
*END

*D_NET *253 0.00398382
*CONN
*P alu_out[4] O
*I *545:X O *D sky130_fd_sc_hd__clkdlybuf4s50_1
*CAP
1 alu_out[4] 0.0018152
2 *545:X 0.0018152
3 *481:A alu_out[4] 7.67113e-05
4 *483:A alu_out[4] 0
5 *512:A alu_out[4] 0.000233937
6 *513:A alu_out[4] 4.27752e-05
7 *9:10 alu_out[4] 0
*RES
1 *545:X alu_out[4] 23.2747 
*END

*D_NET *254 0.0016805
*CONN
*P alu_out[5] O
*I *546:X O *D sky130_fd_sc_hd__clkdlybuf4s50_1
*CAP
1 alu_out[5] 0.000576672
2 *546:X 0.000576672
3 alu_out[5] *389:A 0
4 alu_out[0] alu_out[5] 0.000112075
5 alu_out[1] alu_out[5] 5.32834e-05
6 *314:B alu_out[5] 0.000215038
7 *455:A alu_out[5] 0
8 *487:A alu_out[5] 0.000109816
9 *498:A alu_out[5] 0
10 *582:A alu_out[5] 0
11 *97:8 alu_out[5] 0
12 *140:20 alu_out[5] 3.69381e-05
*RES
1 *546:X alu_out[5] 27.3837 
*END

*D_NET *255 0.00151412
*CONN
*P alu_out[6] O
*I *547:X O *D sky130_fd_sc_hd__clkdlybuf4s50_1
*CAP
1 alu_out[6] 0.000464345
2 *547:X 0.000464345
3 *480:A alu_out[6] 4.10489e-05
4 *509:A alu_out[6] 4.10489e-05
5 *512:A alu_out[6] 0.000115411
6 *513:A alu_out[6] 2.16355e-05
7 *546:A alu_out[6] 0.000255308
8 *155:10 alu_out[6] 0.000110976
*RES
1 *547:X alu_out[6] 29.5854 
*END

*D_NET *256 0.00130372
*CONN
*P alu_out[7] O
*I *548:X O *D sky130_fd_sc_hd__clkdlybuf4s50_1
*CAP
1 alu_out[7] 0.000516877
2 *548:X 0.000516877
3 *484:A alu_out[7] 4.66716e-05
4 *515:A alu_out[7] 4.69062e-05
5 *548:A alu_out[7] 0.000176388
*RES
1 *548:X alu_out[7] 29.4517 
*END

*D_NET *257 0.00192276
*CONN
*P alu_out[8] O
*I *549:X O *D sky130_fd_sc_hd__clkdlybuf4s50_1
*CAP
1 alu_out[8] 0.000499817
2 *549:X 0.000499817
3 alu_out[10] alu_out[8] 3.71946e-05
4 *328:A alu_out[8] 0
5 *400:B alu_out[8] 0.000139636
6 *460:A alu_out[8] 0.00017242
7 *461:A alu_out[8] 0.000450533
8 *16:8 alu_out[8] 0
9 *159:10 alu_out[8] 0.000123346
*RES
1 *549:X alu_out[8] 24.1491 
*END

*D_NET *258 0.00131325
*CONN
*P alu_out[9] O
*I *550:X O *D sky130_fd_sc_hd__clkdlybuf4s50_1
*CAP
1 alu_out[9] 0.000224212
2 *550:X 0.000224212
3 alu_out[13] alu_out[9] 0.000592594
4 *492:A alu_out[9] 0.00027223
5 *159:10 alu_out[9] 0
*RES
1 *550:X alu_out[9] 21.6467 
*END

*D_NET *97 0.00203178
*CONN
*I *314:A I *D sky130_fd_sc_hd__nand2_2
*I *582:A I *D sky130_fd_sc_hd__buf_4
*I *455:X O *D sky130_fd_sc_hd__clkbuf_2
*CAP
1 *314:A 0.000361063
2 *582:A 0.00028255
3 *455:X 7.32584e-05
4 *97:8 0.000716871
5 *314:A *314:B 0.000406984
6 *582:A alu_out[5] 0
7 *582:A *466:A 3.05478e-05
8 *582:A *498:A 3.59298e-05
9 *97:8 alu_out[0] 1.91391e-05
10 *97:8 alu_out[5] 0
11 *97:8 *455:A 0.000104976
12 *97:8 *498:A 4.60375e-07
*RES
1 *455:X *97:8 15.9964 
2 *97:8 *582:A 20.7386 
3 *97:8 *314:A 23.3703 
*END

*D_NET *106 0.00215649
*CONN
*I *348:A I *D sky130_fd_sc_hd__xnor2_1
*I *350:B I *D sky130_fd_sc_hd__maj3_2
*I *464:X O *D sky130_fd_sc_hd__clkdlybuf4s50_1
*CAP
1 *348:A 0.00015069
2 *350:B 4.10143e-05
3 *464:X 0.000454523
4 *106:8 0.000646228
5 *348:A *348:B 0.000233859
6 *350:B *348:B 9.78191e-05
7 *106:8 *349:A 0.000209636
8 *106:8 *464:A 0.000136145
9 *349:B *350:B 8.36429e-06
10 *350:A *348:A 4.68256e-05
11 *350:A *350:B 0.000126335
12 *350:A *106:8 5.04829e-06
*RES
1 *464:X *106:8 21.1278 
2 *106:8 *350:B 15.9964 
3 *106:8 *348:A 18.4879 
*END

*D_NET *107 0.00150468
*CONN
*I *353:B I *D sky130_fd_sc_hd__maj3_2
*I *351:A I *D sky130_fd_sc_hd__xnor2_1
*I *465:X O *D sky130_fd_sc_hd__clkdlybuf4s50_1
*CAP
1 *353:B 0.000153995
2 *351:A 0.000129385
3 *465:X 0.000354663
4 *107:6 0.000638043
5 *351:A *353:C 0
6 *351:A *561:A 0
7 *351:A *139:14 0
8 *353:B *560:A 0.000228593
*RES
1 *465:X *107:6 14.4094 
2 *107:6 *351:A 20.9116 
3 *107:6 *353:B 14.1441 
*END

*D_NET *108 0.00140556
*CONN
*I *313:A I *D sky130_fd_sc_hd__nand2_2
*I *315:A I *D sky130_fd_sc_hd__nor2_4
*I *466:X O *D sky130_fd_sc_hd__buf_8
*CAP
1 *313:A 0.000193573
2 *315:A 0.000416893
3 *466:X 0.00022332
4 *313:A *313:B 0.000213449
5 *313:A *140:20 5.04432e-05
6 *315:A *314:B 0.00025821
7 *315:A *389:A 3.08343e-05
8 *588:A *315:A 0
9 *4:8 *313:A 1.88422e-05
*RES
1 *466:X *315:A 33.1026 
2 *315:A *313:A 24.2613 
*END

*D_NET *109 0.00277192
*CONN
*I *356:A I *D sky130_fd_sc_hd__maj3_2
*I *354:A I *D sky130_fd_sc_hd__xnor2_1
*I *467:X O *D sky130_fd_sc_hd__clkdlybuf4s50_1
*CAP
1 *356:A 0
2 *354:A 0.000221266
3 *467:X 0.000693518
4 *109:16 0.000914784
5 *354:A *354:B 0.000165521
6 *109:16 *468:A 0.000203861
7 *109:16 *141:10 4.0508e-05
8 *353:A *354:A 2.81678e-06
9 *355:B *354:A 6.60095e-06
10 *356:B *109:16 0.000112228
11 *33:10 *354:A 9.09129e-05
12 *33:10 *109:16 0.000319902
*RES
1 *467:X *109:16 36.936 
2 *109:16 *354:A 24.5446 
3 *109:16 *356:A 9.24915 
*END

*D_NET *292 0.000417505
*CONN
*I *385:A I *D sky130_fd_sc_hd__xnor2_1
*I *584:X O *D sky130_fd_sc_hd__buf_4
*CAP
1 *385:A 0.000101519
2 *584:X 0.000101519
3 *383:C *385:A 6.27782e-05
4 *386:B *385:A 0.000146652
5 *388:B *385:A 5.03545e-06
*RES
1 *584:X *385:A 30.8842 
*END

*D_NET *259 0.000477089
*CONN
*I *382:A I *D sky130_fd_sc_hd__xnor2_1
*I *551:X O *D sky130_fd_sc_hd__buf_4
*CAP
1 *382:A 5.30839e-05
2 *551:X 5.30839e-05
3 *382:A *585:A 0.00011818
4 *382:B *382:A 0.000228593
5 *184:15 *382:A 2.41483e-05
*RES
1 *551:X *382:A 21.4401 
*END

*D_NET *262 0.000665075
*CONN
*I *373:A I *D sky130_fd_sc_hd__xnor2_1
*I *554:X O *D sky130_fd_sc_hd__buf_4
*CAP
1 *373:A 0.000241733
2 *554:X 0.000241733
3 *372:A *373:A 3.37822e-05
4 *373:B *373:A 0.000120872
5 *374:B *373:A 1.46203e-05
6 *376:B *373:A 0
7 *507:A *373:A 1.23348e-05
*RES
1 *554:X *373:A 33.8981 
*END

*D_NET *264 0.00052116
*CONN
*I *367:A I *D sky130_fd_sc_hd__xnor2_1
*I *556:X O *D sky130_fd_sc_hd__buf_4
*CAP
1 *367:A 0.000230405
2 *556:X 0.000230405
3 *368:A *367:A 6.035e-05
4 *535:A *367:A 0
*RES
1 *556:X *367:A 33.2392 
*END

*D_NET *265 0.000479752
*CONN
*I *364:A I *D sky130_fd_sc_hd__xnor2_1
*I *557:X O *D sky130_fd_sc_hd__buf_4
*CAP
1 *364:A 0.000229424
2 *557:X 0.000229424
3 *534:A *364:A 2.09034e-05
*RES
1 *557:X *364:A 23.2968 
*END

*D_NET *266 0.000612395
*CONN
*I *361:A I *D sky130_fd_sc_hd__xnor2_1
*I *558:X O *D sky130_fd_sc_hd__buf_4
*CAP
1 *361:A 0.000212416
2 *558:X 0.000212416
3 *361:A *558:A 7.59679e-05
4 *360:A *361:A 8.03393e-06
5 *361:B *361:A 9.46346e-05
6 *74:12 *361:A 8.92568e-06
*RES
1 *558:X *361:A 33.9331 
*END

*D_NET *267 0.0017394
*CONN
*I *358:A I *D sky130_fd_sc_hd__xnor2_1
*I *559:X O *D sky130_fd_sc_hd__buf_4
*CAP
1 *358:A 0.000617804
2 *559:X 0.000617804
3 *358:B *358:A 0.000141896
4 *359:C *358:A 9.70202e-05
5 *360:B *358:A 4.57272e-05
6 *500:A *358:A 7.86825e-06
7 *532:A *358:A 0.000139086
8 *600:A *358:A 7.21985e-05
*RES
1 *559:X *358:A 46.112 
*END

*D_NET *268 0.000622852
*CONN
*I *355:A I *D sky130_fd_sc_hd__xnor2_1
*I *560:X O *D sky130_fd_sc_hd__buf_4
*CAP
1 *355:A 0.000252904
2 *560:X 0.000252904
3 *495:A *355:A 0.000117045
4 *137:10 *355:A 0
*RES
1 *560:X *355:A 33.9331 
*END

*D_NET *269 0.000251461
*CONN
*I *352:A I *D sky130_fd_sc_hd__xnor2_1
*I *561:X O *D sky130_fd_sc_hd__buf_4
*CAP
1 *352:A 0.00012573
2 *561:X 0.00012573
*RES
1 *561:X *352:A 21.4401 
*END

*D_NET *270 0.000742253
*CONN
*I *346:A I *D sky130_fd_sc_hd__xnor2_1
*I *562:X O *D sky130_fd_sc_hd__buf_4
*CAP
1 *346:A 0.000297901
2 *562:X 0.000297901
3 *345:B *346:A 0
4 *527:A *346:A 0.000114584
5 *105:6 *346:A 3.18665e-05
*RES
1 *562:X *346:A 34.9352 
*END

*D_NET *110 0.000683839
*CONN
*I *357:A I *D sky130_fd_sc_hd__xnor2_1
*I *359:A I *D sky130_fd_sc_hd__maj3_2
*I *468:X O *D sky130_fd_sc_hd__clkdlybuf4s50_1
*CAP
1 *357:A 1.15099e-05
2 *359:A 0.000139281
3 *468:X 0.000102185
4 *110:8 0.000252976
5 *357:A *357:B 6.27718e-05
6 *357:A *499:A 6.27718e-05
7 *358:B *359:A 1.24817e-05
8 *358:B *110:8 3.98606e-05
*RES
1 *468:X *110:8 16.4116 
2 *110:8 *359:A 16.8269 
3 *110:8 *357:A 14.4725 
*END

*D_NET *271 0.000417333
*CONN
*I *343:A I *D sky130_fd_sc_hd__xnor2_1
*I *563:X O *D sky130_fd_sc_hd__buf_4
*CAP
1 *343:A 0.000109242
2 *563:X 0.000109242
3 alu_out[14] *343:A 7.86825e-06
4 *343:B *343:A 0.000148002
5 *564:A *343:A 0
6 *27:10 *343:A 4.05654e-05
7 *104:10 *343:A 2.41274e-06
*RES
1 *563:X *343:A 30.8842 
*END

*D_NET *272 0.000862003
*CONN
*I *340:A I *D sky130_fd_sc_hd__xnor2_1
*I *564:X O *D sky130_fd_sc_hd__buf_4
*CAP
1 *340:A 0.000208134
2 *564:X 0.000208134
3 *339:A *340:A 6.27718e-05
4 *340:B *340:A 0.000116652
5 *341:C *340:A 1.59362e-06
6 *342:B *340:A 0
7 *104:10 *340:A 0.000264716
*RES
1 *564:X *340:A 33.9331 
*END

*D_NET *273 0.000565589
*CONN
*I *337:A I *D sky130_fd_sc_hd__xnor2_1
*I *565:X O *D sky130_fd_sc_hd__buf_4
*CAP
1 *337:A 0.000225502
2 *565:X 0.000225502
3 *565:A *337:A 0.000114584
*RES
1 *565:X *337:A 24.2372 
*END

*D_NET *274 0.000280379
*CONN
*I *334:A I *D sky130_fd_sc_hd__xnor2_1
*I *566:X O *D sky130_fd_sc_hd__buf_4
*CAP
1 *334:A 0.00014019
2 *566:X 0.00014019
*RES
1 *566:X *334:A 21.4401 
*END

*D_NET *275 0.000256291
*CONN
*I *404:A I *D sky130_fd_sc_hd__xnor2_1
*I *567:X O *D sky130_fd_sc_hd__buf_4
*CAP
1 *404:A 9.06725e-05
2 *567:X 9.06725e-05
3 *522:A *404:A 7.49459e-05
*RES
1 *567:X *404:A 21.4401 
*END

*D_NET *276 0.000900267
*CONN
*I *403:A I *D sky130_fd_sc_hd__xnor2_1
*I *568:X O *D sky130_fd_sc_hd__buf_4
*CAP
1 *403:A 0.000277525
2 *568:X 0.000277525
3 *403:A *568:A 2.58757e-05
4 *329:B *403:A 0.000137137
5 *402:A *403:A 0
6 *402:B *403:A 0.000110844
7 *490:A *403:A 0
8 *599:A *403:A 2.9463e-05
9 *131:10 *403:A 4.18989e-05
*RES
1 *568:X *403:A 34.6215 
*END

*D_NET *277 0.000481143
*CONN
*I *401:B I *D sky130_fd_sc_hd__xnor2_1
*I *569:X O *D sky130_fd_sc_hd__buf_4
*CAP
1 *401:B 0.000102458
2 *569:X 0.000102458
3 *401:B *569:A 0.000114271
4 *520:A *401:B 0.000161956
*RES
1 *569:X *401:B 21.9947 
*END

*D_NET *278 0.0005094
*CONN
*I *400:A I *D sky130_fd_sc_hd__xnor2_1
*I *570:X O *D sky130_fd_sc_hd__buf_4
*CAP
1 *400:A 0.000176923
2 *570:X 0.000176923
3 *550:A *400:A 0.000155554
*RES
1 *570:X *400:A 23.2968 
*END

*D_NET *279 0.000414467
*CONN
*I *398:A I *D sky130_fd_sc_hd__xnor2_1
*I *571:X O *D sky130_fd_sc_hd__buf_4
*CAP
1 *398:A 0.00020314
2 *571:X 0.00020314
3 *326:B *398:A 5.04829e-06
4 *398:B *398:A 3.13805e-06
*RES
1 *571:X *398:A 23.128 
*END

*D_NET *280 0.000412269
*CONN
*I *397:A I *D sky130_fd_sc_hd__xnor2_1
*I *572:X O *D sky130_fd_sc_hd__buf_4
*CAP
1 *397:A 0.000168703
2 *572:X 0.000168703
3 *397:B *397:A 0
4 *548:A *397:A 7.48633e-05
5 *13:14 *397:A 0
*RES
1 *572:X *397:A 31.9934 
*END

*D_NET *111 0.00170051
*CONN
*I *362:B I *D sky130_fd_sc_hd__maj3_2
*I *360:A I *D sky130_fd_sc_hd__xnor2_1
*I *469:X O *D sky130_fd_sc_hd__clkdlybuf4s50_1
*CAP
1 *362:B 0
2 *360:A 0.000239068
3 *469:X 0.000338839
4 *111:10 0.000577906
5 *360:A *361:A 8.03393e-06
6 *360:A *558:A 0.000217581
7 *111:10 *468:A 2.5487e-05
8 *111:10 *469:A 1.33284e-05
9 *111:10 *558:A 0.000136293
10 *111:10 *142:12 0.000127194
11 *361:B *360:A 5.04829e-06
12 *74:12 *111:10 1.17361e-05
*RES
1 *469:X *111:10 21.7056 
2 *111:10 *360:A 20.0446 
3 *111:10 *362:B 13.7491 
*END

*D_NET *281 0.00102739
*CONN
*I *394:A I *D sky130_fd_sc_hd__xnor2_1
*I *573:X O *D sky130_fd_sc_hd__buf_4
*CAP
1 *394:A 0.000345166
2 *573:X 0.000345166
3 *155:10 *394:A 0.00033706
*RES
1 *573:X *394:A 28.8429 
*END

*D_NET *282 0.000289612
*CONN
*I *392:A I *D sky130_fd_sc_hd__xnor2_1
*I *574:X O *D sky130_fd_sc_hd__buf_4
*CAP
1 *392:A 8.6127e-05
2 *574:X 8.6127e-05
3 *544:A *392:A 0.000117359
*RES
1 *574:X *392:A 21.4401 
*END

*D_NET *283 0.000377534
*CONN
*I *391:B I *D sky130_fd_sc_hd__xnor2_1
*I *575:X O *D sky130_fd_sc_hd__buf_4
*CAP
1 *391:B 0.000111816
2 *575:X 0.000111816
3 *318:B *391:B 7.8174e-05
4 *7:8 *391:B 7.57274e-05
*RES
1 *575:X *391:B 31.2994 
*END

*D_NET *263 0.000694979
*CONN
*I *390:A I *D sky130_fd_sc_hd__xnor2_1
*I *555:X O *D sky130_fd_sc_hd__buf_4
*CAP
1 *390:A 0.000256714
2 *555:X 0.000256714
3 *390:B *390:A 3.39219e-05
4 *530:A *390:A 0.000147629
*RES
1 *555:X *390:A 34.4877 
*END

*D_NET *284 0.000411869
*CONN
*I *311:B I *D sky130_fd_sc_hd__xnor2_1
*I *576:X O *D sky130_fd_sc_hd__buf_4
*CAP
1 *311:B 0.000171299
2 *576:X 0.000171299
3 *311:B *311:A 6.92705e-05
4 *393:A *311:B 0
5 *580:A *311:B 0
*RES
1 *576:X *311:B 31.854 
*END

*D_NET *285 0.000345693
*CONN
*I *319:B I *D sky130_fd_sc_hd__xnor2_1
*I *577:X O *D sky130_fd_sc_hd__buf_4
*CAP
1 *319:B 5.85499e-05
2 *577:X 5.85499e-05
3 *319:A *319:B 0.000228593
*RES
1 *577:X *319:B 20.8855 
*END

*D_NET *286 0.000264783
*CONN
*I *312:B I *D sky130_fd_sc_hd__xnor2_1
*I *578:X O *D sky130_fd_sc_hd__buf_4
*CAP
1 *312:B 0.000101002
2 *578:X 0.000101002
3 *312:B *312:A 6.27782e-05
*RES
1 *578:X *312:B 20.8855 
*END

*D_NET *287 0.000441257
*CONN
*I *389:B I *D sky130_fd_sc_hd__xor2_1
*I *579:X O *D sky130_fd_sc_hd__buf_4
*CAP
1 *389:B 0.000139293
2 *579:X 0.000139293
3 *389:B *389:A 0.00015324
4 alu_out[0] *389:B 9.43222e-06
5 *487:A *389:B 0
6 *519:A *389:B 0
*RES
1 *579:X *389:B 31.2994 
*END

*D_NET *288 0.000288053
*CONN
*I *311:A I *D sky130_fd_sc_hd__xnor2_1
*I *580:X O *D sky130_fd_sc_hd__buf_4
*CAP
1 *311:A 0.000109391
2 *580:X 0.000109391
3 *311:B *311:A 6.92705e-05
*RES
1 *580:X *311:A 21.4401 
*END

*D_NET *261 0.000865028
*CONN
*I *319:A I *D sky130_fd_sc_hd__xnor2_1
*I *553:X O *D sky130_fd_sc_hd__buf_4
*CAP
1 *319:A 0.000161695
2 *553:X 0.000161695
3 *319:A *319:B 0.000228593
4 *320:A *319:A 0.000277502
5 *553:A *319:A 3.55432e-05
*RES
1 *553:X *319:A 33.6572 
*END

*D_NET *112 0.00177705
*CONN
*I *365:B I *D sky130_fd_sc_hd__maj3_2
*I *363:A I *D sky130_fd_sc_hd__xnor2_1
*I *470:X O *D sky130_fd_sc_hd__clkdlybuf4s50_1
*CAP
1 *365:B 0
2 *363:A 0.000248728
3 *470:X 0.000317421
4 *112:10 0.000566149
5 *363:A *363:B 2.15184e-05
6 *363:A *113:14 0.000131305
7 *363:A *144:12 1.65872e-05
8 *112:10 *470:A 8.49133e-05
9 *112:10 *113:14 0.000125642
10 *365:A *363:A 0.000110645
11 *533:A *363:A 0.000154145
*RES
1 *470:X *112:10 19.9081 
2 *112:10 *363:A 20.4868 
3 *112:10 *365:B 13.7491 
*END

*D_NET *289 0.00046961
*CONN
*I *312:A I *D sky130_fd_sc_hd__xnor2_1
*I *581:X O *D sky130_fd_sc_hd__buf_4
*CAP
1 *312:A 0.000177279
2 *581:X 0.000177279
3 *312:B *312:A 6.27782e-05
4 *119:12 *312:A 5.22742e-05
*RES
1 *581:X *312:A 32.2693 
*END

*D_NET *290 0.00090822
*CONN
*I *389:A I *D sky130_fd_sc_hd__xor2_1
*I *582:X O *D sky130_fd_sc_hd__buf_4
*CAP
1 *389:A 0.00033311
2 *582:X 0.00033311
3 alu_out[5] *389:A 0
4 *314:B *389:A 5.79247e-05
5 *315:A *389:A 3.08343e-05
6 *389:B *389:A 0.00015324
7 *519:A *389:A 0
*RES
1 *582:X *389:A 36.8048 
*END

*D_NET *291 0.00026182
*CONN
*I *393:B I *D sky130_fd_sc_hd__xnor2_1
*I *583:X O *D sky130_fd_sc_hd__buf_4
*CAP
1 *393:B 0.00013091
2 *583:X 0.00013091
*RES
1 *583:X *393:B 30.576 
*END

*D_NET *260 0.00126699
*CONN
*I *561:A I *D sky130_fd_sc_hd__buf_4
*I *552:X O *D sky130_fd_sc_hd__buf_4
*CAP
1 *561:A 0.000475465
2 *552:X 0.000475465
3 *561:A *560:A 0
4 *351:A *561:A 0
5 *353:A *561:A 7.03112e-06
6 *353:C *561:A 0
7 *355:B *561:A 0.000309031
8 *35:12 *561:A 0
*RES
1 *552:X *561:A 40.3012 
*END

*D_NET *293 0.000902712
*CONN
*I *379:A I *D sky130_fd_sc_hd__xnor2_1
*I *585:X O *D sky130_fd_sc_hd__buf_4
*CAP
1 *379:A 0.00027153
2 *585:X 0.00027153
3 *379:A *585:A 0.000359651
*RES
1 *585:X *379:A 35.7307 
*END

*D_NET *294 0.000609961
*CONN
*I *395:B I *D sky130_fd_sc_hd__xnor2_1
*I *586:X O *D sky130_fd_sc_hd__buf_4
*CAP
1 *395:B 0.000210476
2 *586:X 0.000210476
3 *324:A *395:B 6.36477e-05
4 *547:A *395:B 4.66112e-05
5 *576:A *395:B 1.50924e-05
6 *12:12 *395:B 6.3657e-05
*RES
1 *586:X *395:B 24.2131 
*END

*D_NET *295 0.00146847
*CONN
*I *316:SLEEP I *D sky130_fd_sc_hd__lpflow_isobufsrc_1
*I *587:X O *D sky130_fd_sc_hd__buf_4
*CAP
1 *316:SLEEP 0.000456021
2 *587:X 0.000456021
3 *316:SLEEP *587:A 6.49002e-05
4 *317:A2 *316:SLEEP 0.000120738
5 *317:B1 *316:SLEEP 6.36477e-05
6 *390:B *316:SLEEP 0
7 *530:A *316:SLEEP 0
8 *555:A *316:SLEEP 0.000240707
9 *2:6 *316:SLEEP 6.64392e-05
*RES
1 *587:X *316:SLEEP 40.0789 
*END

*D_NET *296 0.000807951
*CONN
*I *587:A I *D sky130_fd_sc_hd__buf_4
*I *588:X O *D sky130_fd_sc_hd__buf_4
*CAP
1 *587:A 0.000281252
2 *588:X 0.000281252
3 *316:SLEEP *587:A 6.49002e-05
4 *519:A *587:A 0
5 *555:A *587:A 0.000170207
6 *3:8 *587:A 1.03403e-05
*RES
1 *588:X *587:A 35.3395 
*END

*D_NET *297 0.000641366
*CONN
*I *349:A I *D sky130_fd_sc_hd__xnor2_1
*I *589:X O *D sky130_fd_sc_hd__buf_4
*CAP
1 *349:A 0.000184479
2 *589:X 0.000184479
3 *464:A *349:A 6.27718e-05
4 *106:8 *349:A 0.000209636
*RES
1 *589:X *349:A 32.548 
*END

*D_NET *298 0.00132349
*CONN
*I *560:A I *D sky130_fd_sc_hd__buf_4
*I *590:X O *D sky130_fd_sc_hd__buf_4
*CAP
1 *560:A 0.00041588
2 *590:X 0.00041588
3 *353:A *560:A 0.000160617
4 *353:B *560:A 0.000228593
5 *465:A *560:A 0
6 *561:A *560:A 0
7 *35:12 *560:A 0.000102525
*RES
1 *590:X *560:A 38.2575 
*END

*D_NET *113 0.00487141
*CONN
*I *366:A I *D sky130_fd_sc_hd__xnor2_1
*I *368:B I *D sky130_fd_sc_hd__maj3_2
*I *471:X O *D sky130_fd_sc_hd__clkdlybuf4s50_1
*CAP
1 *366:A 0
2 *368:B 7.46639e-05
3 *471:X 0.00112904
4 *113:14 0.0012037
5 *368:B *368:C 0.000312627
6 *368:B *464:A 0.000461395
7 *368:B *145:10 4.95892e-05
8 *113:14 alu_out[24] 0
9 *113:14 *464:A 4.76794e-05
10 *113:14 *144:12 0.000472752
11 *113:14 *145:10 6.27718e-05
12 *363:A *113:14 0.000131305
13 *365:A *113:14 8.96447e-06
14 *534:A *113:14 0.000104337
15 *535:A *113:14 0.000686938
16 *112:10 *113:14 0.000125642
*RES
1 *471:X *113:14 48.5249 
2 *113:14 *368:B 14.4094 
3 *113:14 *366:A 9.24915 
*END

*D_NET *299 0.00135198
*CONN
*I *567:A I *D sky130_fd_sc_hd__buf_4
*I *591:X O *D sky130_fd_sc_hd__buf_4
*CAP
1 *567:A 0.000495623
2 *591:X 0.000495623
3 *567:A *303:16 6.27782e-05
4 alu_out[12] *567:A 2.02035e-05
5 *332:A *567:A 8.96869e-05
6 *332:C *567:A 5.39608e-05
7 *404:B *567:A 0
8 *459:A *567:A 4.80965e-05
9 *461:A *567:A 2.00158e-05
10 *595:A *567:A 0
11 *21:10 *567:A 0
12 *100:10 *567:A 6.59915e-05
*RES
1 *591:X *567:A 41.2655 
*END

*D_NET *300 0.00069139
*CONN
*I *370:A I *D sky130_fd_sc_hd__xnor2_1
*I *592:X O *D sky130_fd_sc_hd__buf_4
*CAP
1 *370:A 0.000174407
2 *592:X 0.000174407
3 *369:B *370:A 0
4 *371:A *370:A 0
5 *371:B *370:A 6.50727e-05
6 *45:12 *370:A 0.000106215
7 *146:6 *370:A 0.000171288
*RES
1 *592:X *370:A 32.8239 
*END

*D_NET *301 0.000917311
*CONN
*I *376:A I *D sky130_fd_sc_hd__xnor2_1
*I *593:X O *D sky130_fd_sc_hd__buf_4
*CAP
1 *376:A 0.000295602
2 *593:X 0.000295602
3 *376:B *376:A 0
4 *377:A *376:A 7.81926e-05
5 *506:A *376:A 7.09666e-06
6 *507:A *376:A 0.000211546
7 *593:A *376:A 2.26247e-05
8 *47:10 *376:A 0
9 *49:12 *376:A 6.64671e-06
*RES
1 *593:X *376:A 36.2853 
*END

*D_NET *302 0.00217348
*CONN
*I *585:A I *D sky130_fd_sc_hd__buf_4
*I *594:X O *D sky130_fd_sc_hd__buf_4
*CAP
1 *585:A 0.000563696
2 *594:X 0.000563696
3 *375:A *585:A 0
4 *377:A *585:A 0.000172023
5 *379:A *585:A 0.000359651
6 *380:C *585:A 0
7 *382:A *585:A 0.00011818
8 *540:A *585:A 0.000275256
9 *594:A *585:A 0
10 *53:10 *585:A 0
11 *149:10 *585:A 0
12 *184:15 *585:A 0.000120974
*RES
1 *594:X *585:A 46.8115 
*END

*D_NET *303 0.00227695
*CONN
*I *591:A I *D sky130_fd_sc_hd__buf_4
*I *595:X O *D sky130_fd_sc_hd__buf_4
*CAP
1 *591:A 0
2 *595:X 0.000992718
3 *303:16 0.000992718
4 alu_out[16] *303:16 0
5 *335:C *303:16 2.2731e-05
6 *491:A *303:16 0
7 *526:A *303:16 0
8 *567:A *303:16 6.27782e-05
9 *596:A *303:16 0.000111658
10 *23:10 *303:16 9.43419e-05
*RES
1 *595:X *303:16 41.0832 
2 *303:16 *591:A 9.24915 
*END

*D_NET *304 0.000994137
*CONN
*I *566:A I *D sky130_fd_sc_hd__buf_4
*I *596:X O *D sky130_fd_sc_hd__buf_4
*CAP
1 *566:A 0.000292534
2 *596:X 0.000292534
3 *335:C *566:A 0.000105083
4 *596:A *566:A 6.72595e-05
5 *23:10 *566:A 3.00084e-05
6 *101:10 *566:A 0.000206718
*RES
1 *596:X *566:A 36.315 
*END

*D_NET *305 0.000615997
*CONN
*I *559:A I *D sky130_fd_sc_hd__buf_4
*I *597:X O *D sky130_fd_sc_hd__buf_4
*CAP
1 *559:A 0.0002641
2 *597:X 0.0002641
3 *359:B *559:A 7.19887e-05
4 *465:A *559:A 1.28069e-05
5 *35:12 *559:A 3.00174e-06
*RES
1 *597:X *559:A 34.1019 
*END

*D_NET *306 0.00123359
*CONN
*I *569:A I *D sky130_fd_sc_hd__buf_4
*I *598:X O *D sky130_fd_sc_hd__buf_4
*CAP
1 *569:A 0.000454316
2 *598:X 0.000454316
3 *329:B *569:A 0
4 *401:B *569:A 0.000114271
5 *598:A *569:A 0.000161956
6 *17:8 *569:A 4.87301e-05
7 *160:10 *569:A 0
*RES
1 *598:X *569:A 38.5387 
*END

*D_NET *307 0.000516613
*CONN
*I *568:A I *D sky130_fd_sc_hd__buf_4
*I *599:X O *D sky130_fd_sc_hd__buf_4
*CAP
1 *568:A 0.00021398
2 *599:X 0.00021398
3 *403:A *568:A 2.58757e-05
4 *599:A *568:A 6.27782e-05
*RES
1 *599:X *568:A 23.6826 
*END

*D_NET *308 0.00128948
*CONN
*I *558:A I *D sky130_fd_sc_hd__buf_4
*I *600:X O *D sky130_fd_sc_hd__buf_4
*CAP
1 *558:A 0.000173088
2 *600:X 0.000173088
3 *360:A *558:A 0.000217581
4 *361:A *558:A 7.59679e-05
5 *74:12 *558:A 0.000513458
6 *111:10 *558:A 0.000136293
*RES
1 *600:X *558:A 36.8048 
*END

*D_NET *114 0.00164501
*CONN
*I *369:A I *D sky130_fd_sc_hd__xnor2_1
*I *371:A I *D sky130_fd_sc_hd__maj3_2
*I *472:X O *D sky130_fd_sc_hd__clkdlybuf4s50_1
*CAP
1 *369:A 0
2 *371:A 0.000119857
3 *472:X 0.000391143
4 *114:8 0.000511
5 *371:A *369:B 0.000156823
6 *371:A *370:A 0
7 *370:B *114:8 3.16131e-05
8 *536:A *114:8 0.000434578
9 *593:A *371:A 0
*RES
1 *472:X *114:8 20.5341 
2 *114:8 *371:A 22.1574 
3 *114:8 *369:A 9.24915 
*END

*D_NET *115 0.00192164
*CONN
*I *372:A I *D sky130_fd_sc_hd__xnor2_1
*I *374:B I *D sky130_fd_sc_hd__maj3_2
*I *473:X O *D sky130_fd_sc_hd__clkdlybuf4s50_1
*CAP
1 *372:A 7.05357e-05
2 *374:B 0.000250912
3 *473:X 0.000310503
4 *115:8 0.00063195
5 *372:A *373:A 3.37822e-05
6 *372:A *374:C 0.000122992
7 *372:A *507:A 7.09666e-06
8 *374:B *373:A 1.46203e-05
9 *374:B *374:C 9.22748e-05
10 *374:B *473:A 3.20407e-05
11 *115:8 *374:C 6.08467e-05
12 *374:A *374:B 0.000127991
13 *49:12 *374:B 0.000166094
*RES
1 *473:X *115:8 18.3548 
2 *115:8 *374:B 21.8747 
3 *115:8 *372:A 16.4116 
*END

*D_NET *98 0.00220493
*CONN
*I *329:A I *D sky130_fd_sc_hd__maj3_2
*I *309:A I *D sky130_fd_sc_hd__xnor2_1
*I *456:X O *D sky130_fd_sc_hd__clkdlybuf4s50_1
*CAP
1 *329:A 3.99282e-05
2 *309:A 0
3 *456:X 0.000300114
4 *98:14 0.000340042
5 *329:A *329:C 0.000275256
6 *329:A *330:B 7.34948e-06
7 *329:A *99:6 7.6719e-06
8 *329:A *130:12 5.08751e-05
9 *329:A *131:10 0.000377273
10 *98:14 alu_out[10] 3.00835e-06
11 *98:14 *457:A 2.69595e-05
12 *98:14 *130:12 0.000377245
13 *98:14 *131:10 0.000373047
14 *98:14 *159:10 0
15 *520:A *98:14 2.61642e-05
*RES
1 *456:X *98:14 26.9346 
2 *98:14 *309:A 9.24915 
3 *98:14 *329:A 13.3002 
*END

*D_NET *116 0.00132304
*CONN
*I *375:A I *D sky130_fd_sc_hd__xnor2_1
*I *377:B I *D sky130_fd_sc_hd__maj3_2
*I *474:X O *D sky130_fd_sc_hd__clkdlybuf4s50_1
*CAP
1 *375:A 0.000174667
2 *377:B 7.6086e-05
3 *474:X 0.000172947
4 *116:6 0.000423699
5 *375:A *377:C 7.44414e-05
6 *375:A *474:A 2.26985e-05
7 *375:A *585:A 0
8 *375:A *148:8 1.75933e-05
9 *377:B *183:15 5.05841e-05
10 *116:6 *183:15 0.000108981
11 *373:B *375:A 0
12 *377:A *375:A 0
13 *380:B *377:B 0.000175485
14 *539:A *375:A 2.58616e-05
*RES
1 *474:X *116:6 13.8548 
2 *116:6 *377:B 12.2151 
3 *116:6 *375:A 23.2961 
*END

*D_NET *117 0.000665276
*CONN
*I *380:A I *D sky130_fd_sc_hd__maj3_2
*I *378:A I *D sky130_fd_sc_hd__xnor2_1
*I *475:X O *D sky130_fd_sc_hd__clkdlybuf4s50_1
*CAP
1 *380:A 0
2 *378:A 0.000121408
3 *475:X 5.25985e-05
4 *117:6 0.000174006
5 *378:A *380:C 0.00016345
6 *378:A *149:10 3.6147e-05
7 *117:6 *380:C 6.50586e-05
8 *117:6 *183:15 4.82966e-05
9 *53:10 *378:A 4.3116e-06
*RES
1 *475:X *117:6 11.0817 
2 *117:6 *378:A 22.1574 
3 *117:6 *380:A 9.24915 
*END

*D_NET *118 0.000832578
*CONN
*I *383:A I *D sky130_fd_sc_hd__maj3_2
*I *381:A I *D sky130_fd_sc_hd__xnor2_1
*I *476:X O *D sky130_fd_sc_hd__clkdlybuf4s50_1
*CAP
1 *383:A 0.000106704
2 *381:A 2.41032e-05
3 *476:X 0.000114232
4 *118:10 0.000245039
5 *381:A *381:B 6.36477e-05
6 *383:A *381:B 0.000248289
7 *382:B *118:10 3.05632e-05
*RES
1 *476:X *118:10 20.9116 
2 *118:10 *381:A 9.97254 
3 *118:10 *383:A 12.7456 
*END

*D_NET *119 0.0013479
*CONN
*I *318:A I *D sky130_fd_sc_hd__maj3_2
*I *581:A I *D sky130_fd_sc_hd__buf_4
*I *477:X O *D sky130_fd_sc_hd__dlymetal6s2s_1
*CAP
1 *318:A 0.000148796
2 *581:A 0
3 *477:X 0.00037237
4 *119:12 0.000521165
5 *318:A *318:C 0.0001578
6 *119:12 *312:A 5.22742e-05
7 *119:12 *318:C 4.97731e-05
8 *119:12 *151:12 4.57272e-05
9 *318:B *119:12 0
10 *530:A *119:12 0
*RES
1 *477:X *119:12 28.006 
2 *119:12 *581:A 9.24915 
3 *119:12 *318:A 13.8548 
*END

*D_NET *120 0.000565639
*CONN
*I *386:A I *D sky130_fd_sc_hd__maj3_2
*I *384:A I *D sky130_fd_sc_hd__xnor2_1
*I *478:X O *D sky130_fd_sc_hd__clkdlybuf4s50_1
*CAP
1 *386:A 5.72121e-05
2 *384:A 0.000142802
3 *478:X 0.000200014
4 *384:A *384:B 3.30805e-05
5 *384:A *186:15 6.27782e-05
6 *386:A *186:15 6.97525e-05
*RES
1 *478:X *384:A 30.8842 
2 *478:X *386:A 20.3309 
*END

*D_NET *121 0.000734773
*CONN
*I *387:A I *D sky130_fd_sc_hd__xnor2_1
*I *479:X O *D sky130_fd_sc_hd__clkdlybuf4s50_1
*CAP
1 *387:A 0.000294562
2 *479:X 0.000294562
3 *387:A alu_out[31] 0
4 *387:A *511:A 2.97693e-05
5 *388:A *387:A 0.00011588
*RES
1 *479:X *387:A 33.1026 
*END

*D_NET *122 0.00173065
*CONN
*I *553:A I *D sky130_fd_sc_hd__buf_4
*I *320:B I *D sky130_fd_sc_hd__maj3_2
*I *480:X O *D sky130_fd_sc_hd__clkdlybuf4s50_1
*CAP
1 *553:A 0.000161185
2 *320:B 0
3 *480:X 0.000412703
4 *122:8 0.000573888
5 *553:A *319:A 3.55432e-05
6 *553:A *577:A 0.000122378
7 *122:8 *320:C 0.000175485
8 *122:8 *577:A 0
9 *320:A *553:A 0.000224381
10 *320:A *122:8 2.50842e-05
*RES
1 *480:X *122:8 19.2802 
2 *122:8 *320:B 9.24915 
3 *122:8 *553:A 23.7141 
*END

*D_NET *123 0.00201169
*CONN
*I *321:A I *D sky130_fd_sc_hd__maj3_2
*I *580:A I *D sky130_fd_sc_hd__buf_4
*I *481:X O *D sky130_fd_sc_hd__clkdlybuf4s50_1
*CAP
1 *321:A 3.72352e-05
2 *580:A 0.000229903
3 *481:X 0.00040315
4 *123:6 0.000670287
5 *321:A *323:B 0
6 *580:A *311:B 0
7 *580:A *576:A 9.76854e-05
8 *123:6 *323:B 0.000152015
9 *123:6 *323:C 0.000261135
10 *123:6 *124:8 4.23181e-05
11 *323:A *123:6 5.87435e-05
12 *324:A *580:A 5.92196e-05
*RES
1 *481:X *123:6 19.9554 
2 *123:6 *580:A 24.2337 
3 *123:6 *321:A 10.2378 
*END

*D_NET *124 0.00144993
*CONN
*I *323:B I *D sky130_fd_sc_hd__maj3_2
*I *322:A I *D sky130_fd_sc_hd__xnor2_1
*I *482:X O *D sky130_fd_sc_hd__clkdlybuf4s50_1
*CAP
1 *323:B 0.000161385
2 *322:A 0
3 *482:X 0.000285426
4 *124:8 0.000446811
5 *323:B *323:C 0.000261135
6 *124:8 *481:A 6.27718e-05
7 *321:A *323:B 0
8 *323:A *323:B 3.80652e-05
9 *123:6 *323:B 0.000152015
10 *123:6 *124:8 4.23181e-05
*RES
1 *482:X *124:8 16.0973 
2 *124:8 *322:A 9.24915 
3 *124:8 *323:B 15.7356 
*END

*D_NET *125 0.00115934
*CONN
*I *324:B I *D sky130_fd_sc_hd__maj3_2
*I *310:A I *D sky130_fd_sc_hd__xnor2_1
*I *483:X O *D sky130_fd_sc_hd__clkdlybuf4s50_1
*CAP
1 *324:B 0.000200996
2 *310:A 0
3 *483:X 4.49474e-05
4 *125:6 0.000245944
5 *324:B *324:C 0.000387915
6 *324:B *157:6 5.31074e-05
7 *125:6 *157:6 0.000175485
8 *324:A *324:B 5.09499e-05
*RES
1 *483:X *125:6 11.0817 
2 *125:6 *310:A 9.24915 
3 *125:6 *324:B 16.8448 
*END

*D_NET *99 0.00213729
*CONN
*I *330:B I *D sky130_fd_sc_hd__maj3_2
*I *402:A I *D sky130_fd_sc_hd__xnor2_1
*I *457:X O *D sky130_fd_sc_hd__clkdlybuf4s50_1
*CAP
1 *330:B 0.000301093
2 *402:A 0.000153966
3 *457:X 0.000344837
4 *99:6 0.000799896
5 *330:B *131:10 2.38154e-05
6 *402:A *403:A 0
7 *402:A *160:10 0
8 *99:6 *329:C 0.000113197
9 *99:6 *130:12 8.8837e-05
10 *329:A *330:B 7.34948e-06
11 *329:A *99:6 7.6719e-06
12 *329:B *330:B 6.88361e-05
13 *18:10 *330:B 0.000227791
*RES
1 *457:X *99:6 14.964 
2 *99:6 *402:A 20.9116 
3 *99:6 *330:B 17.6405 
*END

*D_NET *126 0.000688916
*CONN
*I *325:A I *D sky130_fd_sc_hd__maj3_2
*I *396:A I *D sky130_fd_sc_hd__xnor2_1
*I *484:X O *D sky130_fd_sc_hd__clkdlybuf4s50_1
*CAP
1 *325:A 0.000195379
2 *396:A 0
3 *484:X 6.14606e-05
4 *126:6 0.00025684
5 *325:A *325:C 6.28747e-05
6 *126:6 *158:6 0.000112361
7 *325:B *325:A 0
*RES
1 *484:X *126:6 11.0817 
2 *126:6 *396:A 9.24915 
3 *126:6 *325:A 22.8808 
*END

*D_NET *127 0.000798836
*CONN
*I *327:C I *D sky130_fd_sc_hd__maj3_2
*I *326:A I *D sky130_fd_sc_hd__xnor2_1
*I *485:X O *D sky130_fd_sc_hd__clkdlybuf4s50_1
*CAP
1 *327:C 9.17579e-05
2 *326:A 0.000272745
3 *485:X 0
4 *127:4 0.000364503
5 *326:A *326:B 0
6 *326:A *485:A 4.75721e-06
7 *327:C *327:A 6.50727e-05
*RES
1 *485:X *127:4 9.24915 
2 *127:4 *326:A 24.1294 
3 *127:4 *327:C 11.6364 
*END

*D_NET *128 0.00199947
*CONN
*I *399:A I *D sky130_fd_sc_hd__xnor2_1
*I *328:B I *D sky130_fd_sc_hd__maj3_2
*I *486:X O *D sky130_fd_sc_hd__clkdlybuf4s50_1
*CAP
1 *399:A 2.26336e-05
2 *328:B 0.000237188
3 *486:X 0.000214757
4 *128:8 0.000474579
5 *328:B *328:C 0.000197348
6 *328:B *399:B 6.27718e-05
7 *399:A *159:10 4.82021e-05
8 *399:A *160:10 1.37566e-05
9 *128:8 *159:10 0.000453371
10 *128:8 *160:10 0.000128307
11 *328:A *328:B 1.88676e-05
12 *401:A *128:8 0.000127683
*RES
1 *486:X *128:8 22.2252 
2 *128:8 *328:B 19.898 
3 *128:8 *399:A 14.7506 
*END

*D_NET *129 0.00233403
*CONN
*I *579:A I *D sky130_fd_sc_hd__buf_4
*I *314:B I *D sky130_fd_sc_hd__nand2_2
*I *487:X O *D sky130_fd_sc_hd__clkbuf_2
*CAP
1 *579:A 0
2 *314:B 0.000190359
3 *487:X 0.000487265
4 *129:12 0.000677624
5 *314:B alu_out[5] 0.000215038
6 *314:B *389:A 5.79247e-05
7 *129:12 alu_out[0] 4.06282e-05
8 *314:A *314:B 0.000406984
9 *315:A *314:B 0.00025821
*RES
1 *487:X *129:12 19.1838 
2 *129:12 *314:B 26.763 
3 *129:12 *579:A 9.24915 
*END

*D_NET *130 0.0015983
*CONN
*I *329:C I *D sky130_fd_sc_hd__maj3_2
*I *309:B I *D sky130_fd_sc_hd__xnor2_1
*I *488:X O *D sky130_fd_sc_hd__clkdlybuf4s50_1
*CAP
1 *329:C 3.23012e-05
2 *309:B 0
3 *488:X 0.000268303
4 *130:12 0.000300604
5 *130:12 *131:10 9.16785e-05
6 *130:12 *159:10 0
7 *329:A *329:C 0.000275256
8 *329:A *130:12 5.08751e-05
9 *98:14 *130:12 0.000377245
10 *99:6 *329:C 0.000113197
11 *99:6 *130:12 8.8837e-05
*RES
1 *488:X *130:12 27.3204 
2 *130:12 *309:B 9.24915 
3 *130:12 *329:C 12.191 
*END

*D_NET *131 0.00356416
*CONN
*I *330:C I *D sky130_fd_sc_hd__maj3_2
*I *402:B I *D sky130_fd_sc_hd__xnor2_1
*I *489:X O *D sky130_fd_sc_hd__clkdlybuf4s50_1
*CAP
1 *330:C 0
2 *402:B 0.000414454
3 *489:X 0.000504781
4 *131:10 0.000919235
5 *402:B *403:A 0.000110844
6 *402:B *459:A 0
7 *402:B *490:A 0
8 *131:10 *403:A 4.18989e-05
9 *131:10 *459:A 0
10 *329:A *131:10 0.000377273
11 *329:B *131:10 0.000267394
12 *330:B *131:10 2.38154e-05
13 *401:A *131:10 0.000169041
14 *403:B *402:B 0.000168313
15 *521:A *402:B 1.68143e-05
16 *599:A *131:10 1.09738e-05
17 *18:10 *131:10 7.45998e-05
18 *98:14 *131:10 0.000373047
19 *130:12 *131:10 9.16785e-05
*RES
1 *489:X *131:10 29.8937 
2 *131:10 *402:B 21.5907 
3 *131:10 *330:C 13.7491 
*END

*D_NET *132 0.000549708
*CONN
*I *332:C I *D sky130_fd_sc_hd__maj3_2
*I *331:B I *D sky130_fd_sc_hd__xnor2_1
*I *490:X O *D sky130_fd_sc_hd__clkdlybuf4s50_1
*CAP
1 *332:C 0.00012751
2 *331:B 3.2621e-05
3 *490:X 0.000160131
4 *332:C *567:A 5.39608e-05
5 *331:A *331:B 0.000175485
6 *595:A *332:C 0
*RES
1 *490:X *331:B 20.3309 
2 *490:X *332:C 30.4689 
*END

*D_NET *133 0.000865226
*CONN
*I *335:C I *D sky130_fd_sc_hd__maj3_2
*I *333:B I *D sky130_fd_sc_hd__xnor2_1
*I *491:X O *D sky130_fd_sc_hd__clkdlybuf4s50_1
*CAP
1 *335:C 0.000206119
2 *333:B 5.92988e-05
3 *491:X 0.000265418
4 *335:C *566:A 0.000105083
5 *335:C *303:16 2.2731e-05
6 *333:A *333:B 0.000167692
7 *333:A *335:C 3.88852e-05
*RES
1 *491:X *333:B 20.3309 
2 *491:X *335:C 32.8508 
*END

*D_NET *134 0.00100691
*CONN
*I *338:C I *D sky130_fd_sc_hd__maj3_2
*I *336:B I *D sky130_fd_sc_hd__xnor2_1
*I *492:X O *D sky130_fd_sc_hd__clkdlybuf4s50_1
*CAP
1 *338:C 7.85381e-05
2 *336:B 0
3 *492:X 0.000261053
4 *134:6 0.000339591
5 *338:B *338:C 0.000128091
6 *338:B *134:6 2.41483e-05
7 *102:6 *134:6 0.000175485
*RES
1 *492:X *134:6 16.0732 
2 *134:6 *336:B 9.24915 
3 *134:6 *338:C 12.191 
*END

*D_NET *135 0.00117988
*CONN
*I *339:B I *D sky130_fd_sc_hd__xnor2_1
*I *341:C I *D sky130_fd_sc_hd__maj3_2
*I *493:X O *D sky130_fd_sc_hd__clkdlybuf4s50_1
*CAP
1 *339:B 0
2 *341:C 0.000188594
3 *493:X 0.000269986
4 *135:6 0.00045858
5 *341:C *340:A 1.59362e-06
6 *339:A *341:C 0
7 *104:10 *135:6 0.000261128
*RES
1 *493:X *135:6 16.6278 
2 *135:6 *341:C 22.4655 
3 *135:6 *339:B 9.24915 
*END

*D_NET *100 0.00188946
*CONN
*I *332:A I *D sky130_fd_sc_hd__maj3_2
*I *331:A I *D sky130_fd_sc_hd__xnor2_1
*I *458:X O *D sky130_fd_sc_hd__clkdlybuf4s50_1
*CAP
1 *332:A 0.000114066
2 *331:A 0.000151541
3 *458:X 0.000205119
4 *100:10 0.000470726
5 *331:A *331:B 0.000175485
6 *332:A *459:A 0.000211391
7 *332:A *567:A 8.96869e-05
8 *100:10 alu_out[12] 4.15236e-05
9 *100:10 *459:A 0.000197569
10 *100:10 *567:A 6.59915e-05
11 *522:A *100:10 0.00013978
12 *19:8 *332:A 2.65831e-05
*RES
1 *458:X *100:10 21.2932 
2 *100:10 *331:A 17.8002 
3 *100:10 *332:A 18.3808 
*END

*D_NET *136 0.00178749
*CONN
*I *344:C I *D sky130_fd_sc_hd__maj3_2
*I *342:B I *D sky130_fd_sc_hd__xnor2_1
*I *494:X O *D sky130_fd_sc_hd__clkdlybuf4s50_1
*CAP
1 *344:C 9.18895e-05
2 *342:B 0.00016988
3 *494:X 0.000296883
4 *136:6 0.000558652
5 *342:B *340:A 0
6 *342:A *342:B 0
7 *344:B *342:B 3.00174e-06
8 *344:B *344:C 6.27782e-05
9 *525:A *136:6 0.000604403
10 *104:10 *342:B 0
*RES
1 *494:X *136:6 18.2916 
2 *136:6 *342:B 22.5727 
3 *136:6 *344:C 11.8293 
*END

*D_NET *137 0.00311914
*CONN
*I *345:B I *D sky130_fd_sc_hd__xnor2_1
*I *347:C I *D sky130_fd_sc_hd__maj3_2
*I *495:X O *D sky130_fd_sc_hd__clkdlybuf4s50_1
*CAP
1 *345:B 0.000335701
2 *347:C 0
3 *495:X 0.00103551
4 *137:10 0.00137121
5 *345:B *346:A 0
6 *137:10 alu_out[13] 7.30059e-05
7 *137:10 *355:A 0
8 *137:10 *495:A 6.92705e-05
9 *345:A *345:B 0
10 *346:B *345:B 5.04829e-06
11 *347:A *345:B 0.000219026
12 *347:A *137:10 1.03594e-05
13 *353:A *137:10 0
14 *33:10 *137:10 0
*RES
1 *495:X *137:10 39.9739 
2 *137:10 *347:C 13.7491 
3 *137:10 *345:B 22.9755 
*END

*D_NET *138 0.00220945
*CONN
*I *350:C I *D sky130_fd_sc_hd__maj3_2
*I *348:B I *D sky130_fd_sc_hd__xnor2_1
*I *496:X O *D sky130_fd_sc_hd__clkdlybuf4s50_1
*CAP
1 *350:C 3.6352e-05
2 *348:B 0.000176862
3 *496:X 0.000556847
4 *138:12 0.000770062
5 *348:A *348:B 0.000233859
6 *349:B *348:B 0.000123465
7 *349:B *138:12 7.20028e-05
8 *350:B *348:B 9.78191e-05
9 *358:B *138:12 4.89392e-05
10 *33:10 *348:B 1.36606e-05
11 *33:10 *138:12 7.28567e-06
12 *74:12 *138:12 7.22928e-05
*RES
1 *496:X *138:12 31.342 
2 *138:12 *348:B 24.9571 
3 *138:12 *350:C 10.2378 
*END

*D_NET *139 0.0033519
*CONN
*I *351:B I *D sky130_fd_sc_hd__xnor2_1
*I *353:C I *D sky130_fd_sc_hd__maj3_2
*I *497:X O *D sky130_fd_sc_hd__clkdlybuf4s50_1
*CAP
1 *351:B 0
2 *353:C 0.000147522
3 *497:X 0.000967141
4 *139:14 0.00111466
5 *353:C *495:A 0.000171288
6 *353:C *561:A 0
7 *139:14 *495:A 0.000589689
8 *351:A *353:C 0
9 *351:A *139:14 0
10 *531:A *353:C 7.97944e-05
11 *531:A *139:14 0.00014489
12 *535:A *139:14 1.84293e-05
13 *74:12 *139:14 0.000118485
*RES
1 *497:X *139:14 38.0267 
2 *139:14 *353:C 23.1595 
3 *139:14 *351:B 9.24915 
*END

*D_NET *140 0.00183535
*CONN
*I *313:B I *D sky130_fd_sc_hd__nand2_2
*I *315:B I *D sky130_fd_sc_hd__nor2_4
*I *498:X O *D sky130_fd_sc_hd__buf_6
*CAP
1 *313:B 5.1125e-05
2 *315:B 0
3 *498:X 0.000596052
4 *140:20 0.000647176
5 *140:20 alu_out[5] 3.69381e-05
6 *140:20 *480:A 0.000175485
7 *140:20 *509:A 0
8 *313:A *313:B 0.000213449
9 *313:A *140:20 5.04432e-05
10 *546:A *140:20 0
11 *4:8 *313:B 6.46815e-05
*RES
1 *498:X *140:20 32.968 
2 *140:20 *315:B 9.24915 
3 *140:20 *313:B 11.6364 
*END

*D_NET *141 0.00202251
*CONN
*I *356:C I *D sky130_fd_sc_hd__maj3_2
*I *354:B I *D sky130_fd_sc_hd__xnor2_1
*I *499:X O *D sky130_fd_sc_hd__clkdlybuf4s50_1
*CAP
1 *356:C 5.29293e-05
2 *354:B 0.000257169
3 *499:X 0.000283421
4 *141:10 0.00059352
5 *141:10 *499:A 0.000261135
6 *354:A *354:B 0.000165521
7 *355:B *354:B 4.25508e-05
8 *356:B *354:B 0.000232462
9 *356:B *356:C 6.27718e-05
10 *356:B *141:10 2.03171e-05
11 *33:10 *141:10 2.2766e-06
12 *37:8 *356:C 7.92757e-06
13 *109:16 *141:10 4.0508e-05
*RES
1 *499:X *141:10 19.3535 
2 *141:10 *354:B 21.4325 
3 *141:10 *356:C 15.0271 
*END

*D_NET *142 0.00205357
*CONN
*I *359:C I *D sky130_fd_sc_hd__maj3_2
*I *357:B I *D sky130_fd_sc_hd__xnor2_1
*I *500:X O *D sky130_fd_sc_hd__clkdlybuf4s50_1
*CAP
1 *359:C 0.000125695
2 *357:B 0.000122274
3 *500:X 0.000282752
4 *142:12 0.000530721
5 *357:B *499:A 0.000102384
6 *359:C *358:A 9.70202e-05
7 *142:12 *469:A 7.08723e-06
8 *142:12 *499:A 9.31472e-05
9 *357:A *357:B 6.27718e-05
10 *358:B *359:C 7.78913e-05
11 *532:A *142:12 0.000109427
12 *74:12 *142:12 0.000315206
13 *111:10 *142:12 0.000127194
*RES
1 *500:X *142:12 27.8694 
2 *142:12 *357:B 12.7456 
3 *142:12 *359:C 22.1574 
*END

*D_NET *143 0.000920548
*CONN
*I *360:B I *D sky130_fd_sc_hd__xnor2_1
*I *362:C I *D sky130_fd_sc_hd__maj3_2
*I *501:X O *D sky130_fd_sc_hd__clkdlybuf4s50_1
*CAP
1 *360:B 7.49997e-05
2 *362:C 0.000279473
3 *501:X 0.000204474
4 *360:B *358:A 4.57272e-05
5 *41:10 *362:C 0.000144327
6 *74:12 *360:B 0.000171546
*RES
1 *501:X *362:C 24.7677 
2 *362:C *360:B 30.576 
*END

*D_NET *144 0.00213568
*CONN
*I *365:C I *D sky130_fd_sc_hd__maj3_2
*I *363:B I *D sky130_fd_sc_hd__xnor2_1
*I *502:X O *D sky130_fd_sc_hd__clkdlybuf4s50_1
*CAP
1 *365:C 0.00013421
2 *363:B 4.72149e-05
3 *502:X 0.000299762
4 *144:12 0.000481187
5 *365:C *468:A 0
6 *363:A *363:B 2.15184e-05
7 *363:A *144:12 1.65872e-05
8 *365:A *144:12 0.000181596
9 *533:A *363:B 6.08467e-05
10 *533:A *365:C 2.69685e-05
11 *533:A *144:12 0.000107496
12 *535:A *365:C 0.000173452
13 *41:10 *144:12 0.000112088
14 *113:14 *144:12 0.000472752
*RES
1 *502:X *144:12 28.973 
2 *144:12 *363:B 10.5271 
3 *144:12 *365:C 21.7421 
*END

*D_NET *145 0.0013618
*CONN
*I *366:B I *D sky130_fd_sc_hd__xnor2_1
*I *368:C I *D sky130_fd_sc_hd__maj3_2
*I *503:X O *D sky130_fd_sc_hd__clkdlybuf4s50_1
*CAP
1 *366:B 0
2 *368:C 9.68315e-05
3 *503:X 0.000282546
4 *145:10 0.000379378
5 *145:10 *464:A 0.000178051
6 *368:B *368:C 0.000312627
7 *368:B *145:10 4.95892e-05
8 *113:14 *145:10 6.27718e-05
*RES
1 *503:X *145:10 17.9058 
2 *145:10 *368:C 12.7456 
3 *145:10 *366:B 9.24915 
*END

*D_NET *101 0.00133814
*CONN
*I *335:B I *D sky130_fd_sc_hd__maj3_2
*I *333:A I *D sky130_fd_sc_hd__xnor2_1
*I *459:X O *D sky130_fd_sc_hd__clkdlybuf4s50_1
*CAP
1 *335:B 0
2 *333:A 0.000246776
3 *459:X 0.000180812
4 *101:10 0.000427588
5 *333:A *333:B 0.000167692
6 *333:A *335:C 3.88852e-05
7 *333:A *491:A 0
8 *101:10 *566:A 0.000206718
9 *596:A *333:A 5.03545e-06
10 *596:A *101:10 1.59966e-05
11 *21:10 *333:A 4.86366e-05
*RES
1 *459:X *101:10 18.2471 
2 *101:10 *333:A 20.3233 
3 *101:10 *335:B 13.7491 
*END

*D_NET *146 0.00162574
*CONN
*I *371:C I *D sky130_fd_sc_hd__maj3_2
*I *369:B I *D sky130_fd_sc_hd__xnor2_1
*I *504:X O *D sky130_fd_sc_hd__clkdlybuf4s50_1
*CAP
1 *371:C 2.1308e-05
2 *369:B 0.000151795
3 *504:X 0.000382206
4 *146:6 0.000555309
5 *369:B *370:A 0
6 *146:6 *370:A 0.000171288
7 *371:A *369:B 0.000156823
8 *371:B *369:B 5.28741e-05
9 *371:B *146:6 6.66272e-05
10 *45:12 *146:6 6.75138e-05
*RES
1 *504:X *146:6 18.8462 
2 *146:6 *369:B 22.7442 
3 *146:6 *371:C 9.82786 
*END

*D_NET *147 0.00237972
*CONN
*I *372:B I *D sky130_fd_sc_hd__xnor2_1
*I *374:C I *D sky130_fd_sc_hd__maj3_2
*I *505:X O *D sky130_fd_sc_hd__clkdlybuf4s50_1
*CAP
1 *372:B 0
2 *374:C 0.000389617
3 *505:X 0.000443023
4 *147:12 0.00083264
5 *372:A *374:C 0.000122992
6 *374:A *374:C 0.000322318
7 *374:B *374:C 9.22748e-05
8 *538:A *147:12 9.50664e-05
9 *49:12 *374:C 2.09463e-05
10 *115:8 *374:C 6.08467e-05
*RES
1 *505:X *147:12 28.9842 
2 *147:12 *374:C 29.4236 
3 *147:12 *372:B 9.24915 
*END

*D_NET *148 0.000511223
*CONN
*I *377:C I *D sky130_fd_sc_hd__maj3_2
*I *375:B I *D sky130_fd_sc_hd__xnor2_1
*I *506:X O *D sky130_fd_sc_hd__clkdlybuf4s50_1
*CAP
1 *377:C 0.000106485
2 *375:B 0
3 *506:X 0.00010311
4 *148:8 0.000209594
5 *375:A *377:C 7.44414e-05
6 *375:A *148:8 1.75933e-05
7 *377:A *377:C 0
8 *377:A *148:8 0
*RES
1 *506:X *148:8 16.4116 
2 *148:8 *375:B 13.7491 
3 *148:8 *377:C 16.8269 
*END

*D_NET *149 0.00120506
*CONN
*I *380:C I *D sky130_fd_sc_hd__maj3_2
*I *378:B I *D sky130_fd_sc_hd__xnor2_1
*I *507:X O *D sky130_fd_sc_hd__clkdlybuf4s50_1
*CAP
1 *380:C 0.000121352
2 *378:B 0
3 *507:X 0.000209466
4 *149:10 0.000330818
5 *380:C *585:A 0
6 *380:C *183:15 0.000111708
7 *149:10 *507:A 0.00016386
8 *149:10 *585:A 0
9 *378:A *380:C 0.00016345
10 *378:A *149:10 3.6147e-05
11 *53:10 *380:C 3.20069e-06
12 *117:6 *380:C 6.50586e-05
*RES
1 *507:X *149:10 18.2442 
2 *149:10 *378:B 13.7491 
3 *149:10 *380:C 18.1049 
*END

*D_NET *150 0.0021317
*CONN
*I *381:B I *D sky130_fd_sc_hd__xnor2_1
*I *383:C I *D sky130_fd_sc_hd__maj3_2
*I *508:X O *D sky130_fd_sc_hd__clkdlybuf4s50_1
*CAP
1 *381:B 0.000130055
2 *383:C 0.000772186
3 *508:X 0.000642131
4 *383:C *385:A 6.27782e-05
5 *383:C *508:A 0.000168271
6 *381:A *381:B 6.36477e-05
7 *383:A *381:B 0.000248289
8 *386:B *383:C 2.58616e-05
9 *55:8 *383:C 1.84832e-05
*RES
1 *508:X *383:C 29.4939 
2 *383:C *381:B 22.5493 
*END

*D_NET *151 0.00290463
*CONN
*I *318:C I *D sky130_fd_sc_hd__maj3_2
*I *578:A I *D sky130_fd_sc_hd__buf_4
*I *509:X O *D sky130_fd_sc_hd__dlymetal6s2s_1
*CAP
1 *318:C 0.000340734
2 *578:A 0
3 *509:X 0.000841418
4 *151:12 0.00118215
5 *151:12 alu_out[3] 0.000124844
6 *151:12 *477:A 0
7 *317:B1 *151:12 0
8 *318:A *318:C 0.0001578
9 *390:B *151:12 0
10 *530:A *318:C 4.40158e-05
11 *544:A *151:12 0.000118166
12 *119:12 *318:C 4.97731e-05
13 *119:12 *151:12 4.57272e-05
*RES
1 *509:X *151:12 33.9282 
2 *151:12 *578:A 13.7491 
3 *151:12 *318:C 23.1204 
*END

*D_NET *152 0.00152401
*CONN
*I *384:B I *D sky130_fd_sc_hd__xnor2_1
*I *386:C I *D sky130_fd_sc_hd__maj3_2
*I *510:X O *D sky130_fd_sc_hd__clkdlybuf4s50_1
*CAP
1 *384:B 0.000158181
2 *386:C 0.000366486
3 *510:X 0.000208305
4 *386:C *186:15 0.000712699
5 *384:A *384:B 3.30805e-05
6 *386:B *384:B 4.52563e-05
*RES
1 *510:X *386:C 26.4315 
2 *386:C *384:B 31.854 
*END

*D_NET *153 0.000230439
*CONN
*I *387:B I *D sky130_fd_sc_hd__xnor2_1
*I *511:X O *D sky130_fd_sc_hd__clkdlybuf4s50_1
*CAP
1 *387:B 2.81574e-05
2 *511:X 2.81574e-05
3 *387:B *511:A 6.27718e-05
4 *387:B *186:15 0.000111352
*RES
1 *511:X *387:B 19.7763 
*END

*D_NET *154 0.000545433
*CONN
*I *577:A I *D sky130_fd_sc_hd__buf_4
*I *320:C I *D sky130_fd_sc_hd__maj3_2
*I *512:X O *D sky130_fd_sc_hd__clkdlybuf4s50_1
*CAP
1 *577:A 7.08818e-05
2 *320:C 0.000111711
3 *512:X 4.08289e-05
4 *320:A *577:A 2.41483e-05
5 *553:A *577:A 0.000122378
6 *122:8 *320:C 0.000175485
7 *122:8 *577:A 0
*RES
1 *512:X *320:C 20.3309 
2 *320:C *577:A 20.9096 
*END

*D_NET *155 0.0031442
*CONN
*I *321:C I *D sky130_fd_sc_hd__maj3_2
*I *576:A I *D sky130_fd_sc_hd__buf_4
*I *513:X O *D sky130_fd_sc_hd__clkdlybuf4s50_1
*CAP
1 *321:C 0
2 *576:A 0.000346744
3 *513:X 0.000474246
4 *155:10 0.000820991
5 *576:A *395:B 1.50924e-05
6 *155:10 alu_out[6] 0.000110976
7 *155:10 *394:A 0.00033706
8 *546:A *155:10 0.000901861
9 *573:A *155:10 2.15326e-05
10 *580:A *576:A 9.76854e-05
11 *12:12 *576:A 1.80134e-05
*RES
1 *513:X *155:10 31.0001 
2 *155:10 *576:A 22.03 
3 *155:10 *321:C 13.7491 
*END

*D_NET *102 0.00087913
*CONN
*I *338:B I *D sky130_fd_sc_hd__maj3_2
*I *336:A I *D sky130_fd_sc_hd__xnor2_1
*I *460:X O *D sky130_fd_sc_hd__clkdlybuf4s50_1
*CAP
1 *338:B 0.000212741
2 *336:A 0
3 *460:X 4.17347e-05
4 *102:6 0.000254476
5 *338:B *338:C 0.000128091
6 *338:B *134:6 2.41483e-05
7 *102:6 *134:6 0.000175485
8 *338:A *338:B 4.24529e-05
*RES
1 *460:X *102:6 11.0817 
2 *102:6 *336:A 9.24915 
3 *102:6 *338:B 15.5668 
*END

*D_NET *156 0.0011482
*CONN
*I *323:C I *D sky130_fd_sc_hd__maj3_2
*I *322:B I *D sky130_fd_sc_hd__xnor2_1
*I *514:X O *D sky130_fd_sc_hd__clkdlybuf4s50_1
*CAP
1 *323:C 3.68706e-05
2 *322:B 0
3 *514:X 0.000267784
4 *156:12 0.000304655
5 *323:B *323:C 0.000261135
6 *547:A *156:12 1.66237e-05
7 *123:6 *323:C 0.000261135
*RES
1 *514:X *156:12 22.8836 
2 *156:12 *322:B 9.24915 
3 *156:12 *323:C 12.191 
*END

*D_NET *157 0.00129156
*CONN
*I *324:C I *D sky130_fd_sc_hd__maj3_2
*I *310:B I *D sky130_fd_sc_hd__xnor2_1
*I *515:X O *D sky130_fd_sc_hd__clkdlybuf4s50_1
*CAP
1 *324:C 9.56811e-05
2 *310:B 0
3 *515:X 0.000241847
4 *157:6 0.000337528
5 *324:B *324:C 0.000387915
6 *324:B *157:6 5.31074e-05
7 *125:6 *157:6 0.000175485
*RES
1 *515:X *157:6 16.0732 
2 *157:6 *310:B 9.24915 
3 *157:6 *324:C 13.3002 
*END

*D_NET *158 0.000950032
*CONN
*I *396:B I *D sky130_fd_sc_hd__xnor2_1
*I *325:C I *D sky130_fd_sc_hd__maj3_2
*I *516:X O *D sky130_fd_sc_hd__clkdlybuf4s50_1
*CAP
1 *396:B 0
2 *325:C 0.000162249
3 *516:X 0.000225149
4 *158:6 0.000387398
5 *325:A *325:C 6.28747e-05
6 *126:6 *158:6 0.000112361
*RES
1 *516:X *158:6 14.964 
2 *158:6 *325:C 22.0503 
3 *158:6 *396:B 9.24915 
*END

*D_NET *159 0.00356025
*CONN
*I *326:B I *D sky130_fd_sc_hd__xnor2_1
*I *327:A I *D sky130_fd_sc_hd__maj3_2
*I *517:X O *D sky130_fd_sc_hd__clkdlybuf4s50_1
*CAP
1 *326:B 0.000371112
2 *327:A 4.60758e-05
3 *517:X 0.000910872
4 *159:10 0.00132806
5 *326:B *398:A 5.04829e-06
6 *326:B *485:A 0
7 *159:10 alu_out[8] 0.000123346
8 *159:10 alu_out[9] 0
9 *159:10 *485:A 0
10 *159:10 *486:A 0
11 *159:10 *517:A 0
12 *159:10 *160:10 6.62998e-05
13 *326:A *326:B 0
14 *327:C *327:A 6.50727e-05
15 *398:B *326:B 6.39055e-05
16 *399:A *159:10 4.82021e-05
17 *549:A *326:B 3.39065e-05
18 *549:A *159:10 4.49803e-05
19 *16:8 *159:10 0
20 *98:14 *159:10 0
21 *128:8 *159:10 0.000453371
22 *130:12 *159:10 0
*RES
1 *517:X *159:10 38.4523 
2 *159:10 *327:A 15.0271 
3 *159:10 *326:B 20.8967 
*END

*D_NET *160 0.00202698
*CONN
*I *328:C I *D sky130_fd_sc_hd__maj3_2
*I *399:B I *D sky130_fd_sc_hd__xnor2_1
*I *518:X O *D sky130_fd_sc_hd__clkdlybuf4s50_1
*CAP
1 *328:C 4.97089e-05
2 *399:B 2.21351e-05
3 *518:X 0.000626399
4 *160:10 0.000698243
5 *160:10 *517:A 0
6 *160:10 *569:A 0
7 *328:A *328:C 7.01935e-06
8 *328:B *328:C 0.000197348
9 *328:B *399:B 6.27718e-05
10 *399:A *160:10 1.37566e-05
11 *400:B *328:C 2.84892e-05
12 *400:B *399:B 2.41274e-06
13 *401:A *160:10 0.000124086
14 *402:A *160:10 0
15 *128:8 *160:10 0.000128307
16 *159:10 *160:10 6.62998e-05
*RES
1 *518:X *160:10 33.7845 
2 *160:10 *399:B 9.97254 
3 *160:10 *328:C 11.6364 
*END

*D_NET *65 0.000363527
*CONN
*I *519:A I *D sky130_fd_sc_hd__clkdlybuf4s50_1
*I *389:X O *D sky130_fd_sc_hd__xor2_1
*CAP
1 *519:A 0.000181763
2 *389:X 0.000181763
3 *519:A *389:A 0
4 *519:A *389:B 0
5 *519:A *587:A 0
*RES
1 *389:X *519:A 31.7147 
*END

*D_NET *66 0.00122468
*CONN
*I *520:A I *D sky130_fd_sc_hd__clkdlybuf4s50_1
*I *401:Y O *D sky130_fd_sc_hd__xnor2_1
*CAP
1 *520:A 0.000337173
2 *401:Y 0.000337173
3 *520:A alu_out[10] 0.000362216
4 *520:A *401:B 0.000161956
5 *520:A *98:14 2.61642e-05
*RES
1 *401:Y *520:A 27.9748 
*END

*D_NET *67 0.00318452
*CONN
*I *521:A I *D sky130_fd_sc_hd__clkdlybuf4s50_1
*I *403:Y O *D sky130_fd_sc_hd__xnor2_1
*CAP
1 *521:A 0.00156913
2 *403:Y 0.00156913
3 *521:A *402:B 1.68143e-05
4 *403:B *521:A 2.94411e-05
*RES
1 *403:Y *521:A 42.6838 
*END

*D_NET *68 0.00169214
*CONN
*I *522:A I *D sky130_fd_sc_hd__clkdlybuf4s50_1
*I *404:Y O *D sky130_fd_sc_hd__xnor2_1
*CAP
1 *522:A 0.000738706
2 *404:Y 0.000738706
3 *522:A *404:A 7.49459e-05
4 *522:A *458:A 0
5 *522:A *459:A 0
6 *522:A *100:10 0.00013978
*RES
1 *404:Y *522:A 39.6213 
*END

*D_NET *69 0.000454568
*CONN
*I *523:A I *D sky130_fd_sc_hd__clkdlybuf4s50_1
*I *334:Y O *D sky130_fd_sc_hd__xnor2_1
*CAP
1 *523:A 0.000227284
2 *334:Y 0.000227284
*RES
1 *334:Y *523:A 33.0676 
*END

*D_NET *103 0.00125772
*CONN
*I *339:A I *D sky130_fd_sc_hd__xnor2_1
*I *341:B I *D sky130_fd_sc_hd__maj3_2
*I *461:X O *D sky130_fd_sc_hd__clkdlybuf4s50_1
*CAP
1 *339:A 0.00016175
2 *341:B 0
3 *461:X 0.000371508
4 *103:10 0.000533259
5 *339:A *340:A 6.27718e-05
6 *339:A *341:C 0
7 *339:A *104:10 4.61271e-05
8 *564:A *339:A 7.10524e-05
9 *564:A *103:10 1.12533e-05
10 *25:14 *103:10 0
*RES
1 *461:X *103:10 19.9081 
2 *103:10 *341:B 13.7491 
3 *103:10 *339:A 18.6595 
*END

*D_NET *70 0.00063757
*CONN
*I *524:A I *D sky130_fd_sc_hd__clkdlybuf4s50_1
*I *337:Y O *D sky130_fd_sc_hd__xnor2_1
*CAP
1 *524:A 0.000318785
2 *337:Y 0.000318785
3 *337:B *524:A 0
4 *338:A *524:A 0
*RES
1 *337:Y *524:A 34.6947 
*END

*D_NET *71 0.00260229
*CONN
*I *525:A I *D sky130_fd_sc_hd__clkdlybuf4s50_1
*I *340:Y O *D sky130_fd_sc_hd__xnor2_1
*CAP
1 *525:A 0.000914788
2 *340:Y 0.000914788
3 *525:A *136:6 0.000604403
4 *13:14 *525:A 0.000168313
*RES
1 *340:Y *525:A 35.7633 
*END

*D_NET *72 0.00166181
*CONN
*I *526:A I *D sky130_fd_sc_hd__clkdlybuf4s50_1
*I *343:Y O *D sky130_fd_sc_hd__xnor2_1
*CAP
1 *526:A 0.000758771
2 *343:Y 0.000758771
3 *526:A alu_out[14] 0
4 *526:A *303:16 0
5 *334:B *526:A 0.000144269
6 *338:A *526:A 0
7 *25:14 *526:A 0
*RES
1 *343:Y *526:A 46.3556 
*END

*D_NET *73 0.000640508
*CONN
*I *527:A I *D sky130_fd_sc_hd__clkdlybuf4s50_1
*I *346:Y O *D sky130_fd_sc_hd__xnor2_1
*CAP
1 *527:A 0.000262962
2 *346:Y 0.000262962
3 *527:A *346:A 0.000114584
4 *346:B *527:A 0
*RES
1 *346:Y *527:A 25.3706 
*END

*D_NET *74 0.00498326
*CONN
*I *528:A I *D sky130_fd_sc_hd__clkdlybuf4s50_1
*I *349:Y O *D sky130_fd_sc_hd__xnor2_1
*CAP
1 *528:A 0.000481845
2 *349:Y 0.000860136
3 *74:12 0.00134198
4 *528:A *495:A 0.000124641
5 *528:A *529:A 2.65831e-05
6 *74:12 alu_out[20] 0.000112657
7 *74:12 *360:B 0.000171546
8 *74:12 *361:A 8.92568e-06
9 *74:12 *465:A 0
10 *74:12 *495:A 0
11 *74:12 *529:A 0.000127179
12 *74:12 *532:A 0.000517059
13 *74:12 *558:A 0.000513458
14 *74:12 *111:10 1.17361e-05
15 *74:12 *138:12 7.22928e-05
16 *74:12 *139:14 0.000118485
17 *74:12 *142:12 0.000315206
18 *352:B *74:12 0
19 *358:B *74:12 0.000112367
20 *368:A *74:12 0
21 *600:A *74:12 6.7163e-05
*RES
1 *349:Y *74:12 48.7714 
2 *74:12 *528:A 20.51 
*END

*D_NET *75 0.00104057
*CONN
*I *529:A I *D sky130_fd_sc_hd__clkdlybuf4s50_1
*I *352:Y O *D sky130_fd_sc_hd__xnor2_1
*CAP
1 *529:A 0.000393342
2 *352:Y 0.000393342
3 *529:A *495:A 0.00010012
4 *528:A *529:A 2.65831e-05
5 *74:12 *529:A 0.000127179
*RES
1 *352:Y *529:A 37.293 
*END

*D_NET *76 0.000586543
*CONN
*I *530:A I *D sky130_fd_sc_hd__clkdlybuf4s50_1
*I *390:Y O *D sky130_fd_sc_hd__xnor2_1
*CAP
1 *530:A 0.000197449
2 *390:Y 0.000197449
3 *530:A *316:SLEEP 0
4 *530:A *318:C 4.40158e-05
5 *530:A *390:A 0.000147629
6 *530:A *119:12 0
*RES
1 *390:Y *530:A 33.1026 
*END

*D_NET *77 0.000665815
*CONN
*I *531:A I *D sky130_fd_sc_hd__clkdlybuf4s50_1
*I *355:Y O *D sky130_fd_sc_hd__xnor2_1
*CAP
1 *531:A 0.000188036
2 *355:Y 0.000188036
3 *531:A *353:C 7.97944e-05
4 *531:A *139:14 0.00014489
5 *352:B *531:A 6.50586e-05
*RES
1 *355:Y *531:A 24.816 
*END

*D_NET *78 0.00153377
*CONN
*I *532:A I *D sky130_fd_sc_hd__clkdlybuf4s50_1
*I *358:Y O *D sky130_fd_sc_hd__xnor2_1
*CAP
1 *532:A 0.000309097
2 *358:Y 0.000309097
3 *532:A *358:A 0.000139086
4 *532:A *499:A 0.000139642
5 *532:A *142:12 0.000109427
6 *600:A *532:A 1.03594e-05
7 *74:12 *532:A 0.000517059
*RES
1 *358:Y *532:A 39.7466 
*END

*D_NET *79 0.0018142
*CONN
*I *533:A I *D sky130_fd_sc_hd__clkdlybuf4s50_1
*I *361:Y O *D sky130_fd_sc_hd__xnor2_1
*CAP
1 *533:A 0.000503303
2 *361:Y 0.000503303
3 *533:A alu_out[21] 0
4 *533:A *363:A 0.000154145
5 *533:A *363:B 6.08467e-05
6 *533:A *365:C 2.69685e-05
7 *533:A *499:A 0
8 *533:A *535:A 0.000333986
9 *533:A *144:12 0.000107496
10 *364:B *533:A 0.000124157
*RES
1 *361:Y *533:A 41.9945 
*END

*D_NET *104 0.00225889
*CONN
*I *342:A I *D sky130_fd_sc_hd__xnor2_1
*I *344:A I *D sky130_fd_sc_hd__maj3_2
*I *462:X O *D sky130_fd_sc_hd__clkdlybuf4s50_1
*CAP
1 *342:A 0.000172727
2 *344:A 0
3 *462:X 0.000495115
4 *104:10 0.000667842
5 *342:A *342:B 0
6 *104:10 *340:A 0.000264716
7 *104:10 *342:B 0
8 *104:10 *343:A 2.41274e-06
9 *104:10 *135:6 0.000261128
10 *339:A *104:10 4.61271e-05
11 *343:B *342:A 0.000130777
12 *343:B *104:10 0.000168829
13 *344:B *104:10 4.92146e-05
*RES
1 *462:X *104:10 27.5332 
2 *104:10 *344:A 13.7491 
3 *104:10 *342:A 18.6595 
*END

*D_NET *80 0.000636326
*CONN
*I *534:A I *D sky130_fd_sc_hd__clkdlybuf4s50_1
*I *364:Y O *D sky130_fd_sc_hd__xnor2_1
*CAP
1 *534:A 0.000189081
2 *364:Y 0.000189081
3 *534:A *364:A 2.09034e-05
4 *534:A *535:A 0.000111288
5 *534:A *113:14 0.000104337
6 *41:10 *534:A 2.16355e-05
*RES
1 *364:Y *534:A 31.7469 
*END

*D_NET *81 0.00272528
*CONN
*I *535:A I *D sky130_fd_sc_hd__clkdlybuf4s50_1
*I *367:Y O *D sky130_fd_sc_hd__xnor2_1
*CAP
1 *535:A 0.000638515
2 *367:Y 0.000638515
3 *535:A *365:C 0.000173452
4 *535:A *367:A 0
5 *535:A *502:A 0
6 *535:A *113:14 0.000686938
7 *535:A *139:14 1.84293e-05
8 *364:B *535:A 0.000124157
9 *533:A *535:A 0.000333986
10 *534:A *535:A 0.000111288
*RES
1 *367:Y *535:A 48.9527 
*END

*D_NET *82 0.00108507
*CONN
*I *536:A I *D sky130_fd_sc_hd__clkdlybuf4s50_1
*I *370:Y O *D sky130_fd_sc_hd__xnor2_1
*CAP
1 *536:A 0.000325246
2 *370:Y 0.000325246
3 *536:A *114:8 0.000434578
*RES
1 *370:Y *536:A 24.6472 
*END

*D_NET *83 0.00203015
*CONN
*I *537:A I *D sky130_fd_sc_hd__clkdlybuf4s50_1
*I *373:Y O *D sky130_fd_sc_hd__xnor2_1
*CAP
1 *537:A 0.000768865
2 *373:Y 0.000768865
3 *537:A alu_out[29] 7.13655e-06
4 *537:A alu_out[30] 0.000455201
5 *537:A *511:A 0
6 *537:A *539:A 3.00829e-05
7 *537:A *543:A 0
*RES
1 *373:Y *537:A 47.4943 
*END

*D_NET *84 0.00117435
*CONN
*I *538:A I *D sky130_fd_sc_hd__clkdlybuf4s50_1
*I *376:Y O *D sky130_fd_sc_hd__xnor2_1
*CAP
1 *538:A 0.00022345
2 *376:Y 0.00022345
3 *538:A *507:A 0.000322677
4 *538:A *147:12 9.50664e-05
5 *373:B *538:A 0.000309709
*RES
1 *376:Y *538:A 26.4798 
*END

*D_NET *85 0.00124263
*CONN
*I *539:A I *D sky130_fd_sc_hd__clkdlybuf4s50_1
*I *379:Y O *D sky130_fd_sc_hd__xnor2_1
*CAP
1 *539:A 0.000588618
2 *379:Y 0.000588618
3 *539:A *375:A 2.58616e-05
4 *376:B *539:A 9.44631e-06
5 *537:A *539:A 3.00829e-05
*RES
1 *379:Y *539:A 31.4712 
*END

*D_NET *86 0.000906927
*CONN
*I *540:A I *D sky130_fd_sc_hd__clkdlybuf4s50_1
*I *382:Y O *D sky130_fd_sc_hd__xnor2_1
*CAP
1 *540:A 0.000300977
2 *382:Y 0.000300977
3 *540:A *585:A 0.000275256
4 *540:A *184:15 2.97157e-05
*RES
1 *382:Y *540:A 24.0926 
*END

*D_NET *87 0.000133864
*CONN
*I *541:A I *D sky130_fd_sc_hd__clkdlybuf4s50_1
*I *391:Y O *D sky130_fd_sc_hd__xnor2_1
*CAP
1 *541:A 6.6932e-05
2 *391:Y 6.6932e-05
*RES
1 *391:Y *541:A 20.2103 
*END

*D_NET *88 0.00135194
*CONN
*I *542:A I *D sky130_fd_sc_hd__clkbuf_2
*I *385:Y O *D sky130_fd_sc_hd__xnor2_1
*CAP
1 *542:A 0.000606512
2 *385:Y 0.000606512
3 *542:A alu_out[30] 3.69151e-05
4 *388:A *542:A 4.88507e-05
5 *388:B *542:A 5.31465e-05
*RES
1 *385:Y *542:A 37.2635 
*END

*D_NET *89 0.000408781
*CONN
*I *543:A I *D sky130_fd_sc_hd__buf_6
*I *388:Y O *D sky130_fd_sc_hd__xnor2_4
*CAP
1 *543:A 0.000200208
2 *388:Y 0.000200208
3 *543:A alu_out[31] 0
4 *543:A *508:A 8.36586e-06
5 *537:A *543:A 0
*RES
1 *388:Y *543:A 31.9934 
*END

*D_NET *105 0.00257193
*CONN
*I *347:B I *D sky130_fd_sc_hd__maj3_2
*I *345:A I *D sky130_fd_sc_hd__xnor2_1
*I *463:X O *D sky130_fd_sc_hd__clkdlybuf4s50_1
*CAP
1 *347:B 0.00010428
2 *345:A 0.000326491
3 *463:X 0.000714222
4 *105:6 0.00114499
5 *345:A *345:B 0
6 *105:6 *346:A 3.18665e-05
7 *347:A *347:B 7.71803e-05
8 *562:A *345:A 3.96696e-05
9 *562:A *105:6 2.57986e-05
10 *29:8 *345:A 0.000107432
*RES
1 *463:X *105:6 24.9468 
2 *105:6 *345:A 26.2084 
3 *105:6 *347:B 21.3269 
*END

*D_NET *90 0.00236772
*CONN
*I *544:A I *D sky130_fd_sc_hd__clkdlybuf4s50_1
*I *392:Y O *D sky130_fd_sc_hd__xnor2_1
*CAP
1 *544:A 0.000973945
2 *392:Y 0.000973945
3 *544:A alu_out[3] 0.000112625
4 *544:A *392:A 0.000117359
5 *544:A *151:12 0.000118166
6 *574:A *544:A 5.0715e-05
7 *6:10 *544:A 2.09609e-05
*RES
1 *392:Y *544:A 35.3534 
*END

*D_NET *91 0.00115803
*CONN
*I *545:A I *D sky130_fd_sc_hd__clkdlybuf4s50_1
*I *393:Y O *D sky130_fd_sc_hd__xnor2_1
*CAP
1 *545:A 0.000495003
2 *393:Y 0.000495003
3 *9:10 *545:A 0.00016802
*RES
1 *393:Y *545:A 37.1186 
*END

*D_NET *92 0.00356889
*CONN
*I *546:A I *D sky130_fd_sc_hd__clkdlybuf4s50_1
*I *394:Y O *D sky130_fd_sc_hd__xnor2_1
*CAP
1 *546:A 0.00105393
2 *394:Y 0.00105393
3 *546:A alu_out[6] 0.000255308
4 *546:A *480:A 4.40325e-05
5 *546:A *498:A 0.000129609
6 *546:A *509:A 7.00991e-05
7 *546:A *513:A 6.01271e-05
8 *546:A *140:20 0
9 *546:A *155:10 0.000901861
*RES
1 *394:Y *546:A 49.1777 
*END

*D_NET *93 0.00214914
*CONN
*I *547:A I *D sky130_fd_sc_hd__clkdlybuf4s50_1
*I *395:Y O *D sky130_fd_sc_hd__xnor2_1
*CAP
1 *547:A 0.00104043
2 *395:Y 0.00104043
3 *547:A *395:B 4.66112e-05
4 *547:A *481:A 0
5 *547:A *482:A 0
6 *547:A *514:A 5.04829e-06
7 *547:A *156:12 1.66237e-05
*RES
1 *395:Y *547:A 45.2955 
*END

*D_NET *94 0.00085921
*CONN
*I *548:A I *D sky130_fd_sc_hd__clkdlybuf4s50_1
*I *397:Y O *D sky130_fd_sc_hd__xnor2_1
*CAP
1 *548:A 0.00030398
2 *397:Y 0.00030398
3 *548:A alu_out[7] 0.000176388
4 *548:A *397:A 7.48633e-05
*RES
1 *397:Y *548:A 27.589 
*END

*D_NET *95 0.00096955
*CONN
*I *549:A I *D sky130_fd_sc_hd__clkdlybuf4s50_1
*I *398:Y O *D sky130_fd_sc_hd__xnor2_1
*CAP
1 *549:A 0.000412306
2 *398:Y 0.000412306
3 *549:A *326:B 3.39065e-05
4 *549:A *159:10 4.49803e-05
5 *327:B *549:A 6.60521e-05
6 *16:8 *549:A 0
*RES
1 *398:Y *549:A 37.6732 
*END

*D_NET *96 0.0014483
*CONN
*I *550:A I *D sky130_fd_sc_hd__clkdlybuf4s50_1
*I *400:Y O *D sky130_fd_sc_hd__xnor2_1
*CAP
1 *550:A 0.000595194
2 *400:Y 0.000595194
3 *550:A *400:A 0.000155554
4 *550:A *460:A 0.000102363
*RES
1 *400:Y *550:A 32.0258 
*END

*D_NET *163 0.000629219
*CONN
*P reg_op1[0] I
*I *455:A I *D sky130_fd_sc_hd__clkbuf_2
*CAP
1 reg_op1[0] 0.000150583
2 *455:A 0.000150583
3 *455:A alu_out[0] 7.72624e-05
4 *455:A alu_out[2] 9.19018e-06
5 *455:A alu_out[5] 0
6 *455:A *466:A 5.39252e-05
7 *455:A *498:A 8.26998e-05
8 *97:8 *455:A 0.000104976
*RES
1 reg_op1[0] *455:A 20.696 
*END

*D_NET *164 0.000263891
*CONN
*P reg_op1[10] I
*I *456:A I *D sky130_fd_sc_hd__clkdlybuf4s50_1
*CAP
1 reg_op1[10] 6.97957e-05
2 *456:A 6.97957e-05
3 *456:A *457:A 6.36804e-05
4 *456:A *461:A 6.0619e-05
*RES
1 reg_op1[10] *456:A 18.128 
*END

*D_NET *165 0.000832049
*CONN
*P reg_op1[11] I
*I *457:A I *D sky130_fd_sc_hd__clkdlybuf4s50_1
*CAP
1 reg_op1[11] 0.000270832
2 *457:A 0.000270832
3 *457:A *461:A 5.87594e-05
4 *457:A *489:A 6.67357e-05
5 *457:A *490:A 7.42496e-05
6 *456:A *457:A 6.36804e-05
7 *98:14 *457:A 2.69595e-05
*RES
1 reg_op1[11] *457:A 19.9856 
*END

*D_NET *166 0.00239346
*CONN
*P reg_op1[12] I
*I *458:A I *D sky130_fd_sc_hd__clkdlybuf4s50_1
*CAP
1 reg_op1[12] 0.00107053
2 *458:A 0.00107053
3 *458:A alu_out[11] 0.0002524
4 *458:A *459:A 0
5 *522:A *458:A 0
*RES
1 reg_op1[12] *458:A 28.2218 
*END

*D_NET *167 0.00413969
*CONN
*P reg_op1[13] I
*I *459:A I *D sky130_fd_sc_hd__clkdlybuf4s50_1
*CAP
1 reg_op1[13] 0.00127346
2 *459:A 0.00127346
3 *459:A alu_out[11] 6.79795e-05
4 *459:A alu_out[12] 0.000961521
5 *459:A *488:A 7.2593e-05
6 *459:A *490:A 3.36207e-05
7 *459:A *567:A 4.80965e-05
8 *332:A *459:A 0.000211391
9 *402:B *459:A 0
10 *458:A *459:A 0
11 *522:A *459:A 0
12 *599:A *459:A 0
13 *100:10 *459:A 0.000197569
14 *131:10 *459:A 0
*RES
1 reg_op1[13] *459:A 32.9999 
*END

*D_NET *168 0.00271498
*CONN
*P reg_op1[14] I
*I *460:A I *D sky130_fd_sc_hd__clkdlybuf4s50_1
*CAP
1 reg_op1[14] 0.000933504
2 *460:A 0.000933504
3 *460:A alu_out[10] 3.71946e-05
4 *460:A alu_out[13] 0.000535993
5 *460:A alu_out[8] 0.00017242
6 *460:A *461:A 0
7 *550:A *460:A 0.000102363
*RES
1 reg_op1[14] *460:A 23.3731 
*END

*D_NET *169 0.00425908
*CONN
*P reg_op1[15] I
*I *461:A I *D sky130_fd_sc_hd__clkdlybuf4s50_1
*CAP
1 reg_op1[15] 0.00183458
2 *461:A 0.00183458
3 *461:A alu_out[8] 0.000450533
4 *461:A *490:A 0
5 *461:A *491:A 0
6 *461:A *567:A 2.00158e-05
7 *337:B *461:A 0
8 *456:A *461:A 6.0619e-05
9 *457:A *461:A 5.87594e-05
10 *460:A *461:A 0
11 *598:A *461:A 0
*RES
1 reg_op1[15] *461:A 31.7219 
*END

*D_NET *170 0.00320528
*CONN
*P reg_op1[16] I
*I *462:A I *D sky130_fd_sc_hd__clkdlybuf4s50_1
*CAP
1 reg_op1[16] 0.000978051
2 *462:A 0.000978051
3 *462:A alu_out[13] 0
4 *462:A alu_out[14] 0.000831297
5 *462:A *485:A 0.000246543
6 *462:A *492:A 0.00017134
*RES
1 reg_op1[16] *462:A 24.8484 
*END

*D_NET *171 0.00263499
*CONN
*P reg_op1[17] I
*I *463:A I *D sky130_fd_sc_hd__clkdlybuf4s50_1
*CAP
1 reg_op1[17] 0.000743696
2 *463:A 0.000743696
3 *463:A alu_out[17] 0.000312103
4 *463:A *496:A 0.000391723
5 *463:A *503:A 0.000443773
*RES
1 reg_op1[17] *463:A 20.865 
*END

*D_NET *172 0.00298281
*CONN
*P reg_op1[18] I
*I *464:A I *D sky130_fd_sc_hd__clkdlybuf4s50_1
*CAP
1 reg_op1[18] 0.000855901
2 *464:A 0.000855901
3 *464:A *349:A 6.27718e-05
4 *464:A *470:A 1.37846e-05
5 *464:A *496:A 1.37846e-05
6 *367:B *464:A 0.000357395
7 *368:B *464:A 0.000461395
8 *106:8 *464:A 0.000136145
9 *113:14 *464:A 4.76794e-05
10 *145:10 *464:A 0.000178051
*RES
1 reg_op1[18] *464:A 41.63 
*END

*D_NET *173 0.00281002
*CONN
*P reg_op1[19] I
*I *465:A I *D sky130_fd_sc_hd__clkdlybuf4s50_1
*CAP
1 reg_op1[19] 0.00112073
2 *465:A 0.00112073
3 *465:A alu_out[20] 5.14634e-05
4 *465:A alu_out[21] 0.000136547
5 *465:A alu_out[23] 4.27752e-05
6 *465:A *497:A 1.87111e-05
7 *465:A *499:A 0
8 *465:A *502:A 0.000306247
9 *465:A *559:A 1.28069e-05
10 *465:A *560:A 0
11 *74:12 *465:A 0
*RES
1 reg_op1[19] *465:A 23.7119 
*END

*D_NET *174 0.000350232
*CONN
*P reg_op1[1] I
*I *466:A I *D sky130_fd_sc_hd__buf_8
*CAP
1 reg_op1[1] 6.83455e-05
2 *466:A 6.83455e-05
3 *466:A alu_out[2] 5.94185e-05
4 *466:A *498:A 6.96497e-05
5 *455:A *466:A 5.39252e-05
6 *582:A *466:A 3.05478e-05
*RES
1 reg_op1[1] *466:A 18.5432 
*END

*D_NET *175 0.00389915
*CONN
*P reg_op1[20] I
*I *467:A I *D sky130_fd_sc_hd__clkdlybuf4s50_1
*CAP
1 reg_op1[20] 0.00104419
2 *467:A 0.00104419
3 *467:A *470:A 1.91072e-05
4 *467:A *496:A 0
5 *467:A *500:A 0.00169818
6 *358:B *467:A 9.34865e-05
*RES
1 reg_op1[20] *467:A 24.0378 
*END

*D_NET *176 0.00352808
*CONN
*P reg_op1[21] I
*I *468:A I *D sky130_fd_sc_hd__clkdlybuf4s50_1
*CAP
1 reg_op1[21] 0.000988047
2 *468:A 0.000988047
3 *468:A *469:A 0.000548876
4 *468:A *500:A 0.000773762
5 *365:C *468:A 0
6 *109:16 *468:A 0.000203861
7 *111:10 *468:A 2.5487e-05
*RES
1 reg_op1[21] *468:A 37.8166 
*END

*D_NET *177 0.00217757
*CONN
*P reg_op1[22] I
*I *469:A I *D sky130_fd_sc_hd__clkdlybuf4s50_1
*CAP
1 reg_op1[22] 0.000621808
2 *469:A 0.000621808
3 *469:A alu_out[22] 4.39785e-05
4 *469:A *499:A 0.000192078
5 *469:A *500:A 0.000128605
6 *468:A *469:A 0.000548876
7 *111:10 *469:A 1.33284e-05
8 *142:12 *469:A 7.08723e-06
*RES
1 reg_op1[22] *469:A 21.8592 
*END

*D_NET *178 0.000531531
*CONN
*P reg_op1[23] I
*I *470:A I *D sky130_fd_sc_hd__clkdlybuf4s50_1
*CAP
1 reg_op1[23] 0.000206863
2 *470:A 0.000206863
3 *464:A *470:A 1.37846e-05
4 *467:A *470:A 1.91072e-05
5 *112:10 *470:A 8.49133e-05
*RES
1 reg_op1[23] *470:A 22.1654 
*END

*D_NET *179 0.000926597
*CONN
*P reg_op1[24] I
*I *471:A I *D sky130_fd_sc_hd__clkdlybuf4s50_1
*CAP
1 reg_op1[24] 0.00034139
2 *471:A 0.00034139
3 *471:A alu_out[18] 4.69062e-05
4 *471:A alu_out[24] 0
5 *471:A *495:A 0.000196911
*RES
1 reg_op1[24] *471:A 22.3242 
*END

*D_NET *180 0.00140844
*CONN
*P reg_op1[25] I
*I *472:A I *D sky130_fd_sc_hd__clkdlybuf4s50_1
*CAP
1 reg_op1[25] 0.000362064
2 *472:A 0.000362064
3 *472:A alu_out[17] 0.000142229
4 *472:A alu_out[25] 4.69062e-05
5 *472:A *473:A 1.3122e-05
6 *472:A *504:A 0.00034282
7 *45:12 *472:A 0.000139234
*RES
1 reg_op1[25] *472:A 20.8598 
*END

*D_NET *181 0.00127589
*CONN
*P reg_op1[26] I
*I *473:A I *D sky130_fd_sc_hd__clkdlybuf4s50_1
*CAP
1 reg_op1[26] 0.00032312
2 *473:A 0.00032312
3 *473:A *504:A 0.000374992
4 *473:A *505:A 0.00020949
5 *374:B *473:A 3.20407e-05
6 *472:A *473:A 1.3122e-05
*RES
1 reg_op1[26] *473:A 19.6906 
*END

*D_NET *182 0.00214282
*CONN
*P reg_op1[27] I
*I *474:A I *D sky130_fd_sc_hd__clkdlybuf4s50_1
*CAP
1 reg_op1[27] 0.000707329
2 *474:A 0.000707329
3 *474:A alu_out[29] 0.000476506
4 *474:A *506:A 0
5 *474:A *507:A 0.000213584
6 *474:A *510:A 0
7 *474:A *183:15 1.53776e-05
8 *375:A *474:A 2.26985e-05
*RES
1 reg_op1[27] *474:A 19.7779 
*END

*D_NET *183 0.00343538
*CONN
*P reg_op1[28] I
*I *475:A I *D sky130_fd_sc_hd__clkdlybuf4s50_1
*CAP
1 reg_op1[28] 0.00144062
2 *475:A 0
3 *183:15 0.00144062
4 *183:15 *507:A 2.12195e-05
5 *377:B *183:15 5.05841e-05
6 *380:B *183:15 7.55923e-05
7 *380:C *183:15 0.000111708
8 *474:A *183:15 1.53776e-05
9 *53:10 *183:15 0.000122378
10 *116:6 *183:15 0.000108981
11 *117:6 *183:15 4.82966e-05
*RES
1 reg_op1[28] *183:15 41.4957 
2 *183:15 *475:A 9.24915 
*END

*D_NET *184 0.003722
*CONN
*P reg_op1[29] I
*I *476:A I *D sky130_fd_sc_hd__clkdlybuf4s50_1
*CAP
1 reg_op1[29] 0.00143399
2 *476:A 0
3 *184:15 0.00143399
4 *184:15 alu_out[29] 2.09907e-05
5 *184:15 *382:A 2.41483e-05
6 *184:15 *508:A 1.53776e-05
7 *184:15 *585:A 0.000120974
8 *382:B *184:15 0.00064281
9 *540:A *184:15 2.97157e-05
*RES
1 reg_op1[29] *184:15 42.1896 
2 *184:15 *476:A 9.24915 
*END

*D_NET *185 0.00254827
*CONN
*P reg_op1[2] I
*I *477:A I *D sky130_fd_sc_hd__dlymetal6s2s_1
*CAP
1 reg_op1[2] 0.00085377
2 *477:A 0.00085377
3 *477:A alu_out[2] 2.83502e-05
4 *477:A alu_out[3] 0.000730499
5 *477:A *480:A 0
6 *477:A *509:A 8.18847e-05
7 *477:A *512:A 0
8 *317:B1 *477:A 0
9 *151:12 *477:A 0
*RES
1 reg_op1[2] *477:A 22.7284 
*END

*D_NET *186 0.00429145
*CONN
*P reg_op1[30] I
*I *478:A I *D sky130_fd_sc_hd__clkdlybuf4s50_1
*CAP
1 reg_op1[30] 0.00143497
2 *478:A 0
3 *186:15 0.00143497
4 *186:15 alu_out[31] 0.000110204
5 *186:15 *508:A 1.91072e-05
6 *186:15 *510:A 1.93507e-05
7 *186:15 *511:A 0.000157238
8 *384:A *186:15 6.27782e-05
9 *386:A *186:15 6.97525e-05
10 *386:C *186:15 0.000712699
11 *387:B *186:15 0.000111352
12 *388:A *186:15 0.000159032
*RES
1 reg_op1[30] *186:15 42.5965 
2 *186:15 *478:A 9.24915 
*END

*D_NET *187 0.000768715
*CONN
*P reg_op1[31] I
*I *479:A I *D sky130_fd_sc_hd__clkdlybuf4s50_1
*CAP
1 reg_op1[31] 0.000201702
2 *479:A 0.000201702
3 *479:A alu_out[31] 0
4 *479:A *510:A 0.000177693
5 *479:A *511:A 0.000187618
*RES
1 reg_op1[31] *479:A 18.5869 
*END

*D_NET *188 0.00137018
*CONN
*P reg_op1[3] I
*I *480:A I *D sky130_fd_sc_hd__clkdlybuf4s50_1
*CAP
1 reg_op1[3] 0.000488672
2 *480:A 0.000488672
3 *480:A alu_out[6] 4.10489e-05
4 *480:A *509:A 1.53763e-05
5 *480:A *512:A 0.000116891
6 *477:A *480:A 0
7 *546:A *480:A 4.40325e-05
8 *140:20 *480:A 0.000175485
*RES
1 reg_op1[3] *480:A 28.7085 
*END

*D_NET *189 0.000840167
*CONN
*P reg_op1[4] I
*I *481:A I *D sky130_fd_sc_hd__clkdlybuf4s50_1
*CAP
1 reg_op1[4] 0.000271428
2 *481:A 0.000271428
3 *481:A alu_out[4] 7.67113e-05
4 *481:A *482:A 0.000157828
5 *481:A *483:A 0
6 *547:A *481:A 0
7 *124:8 *481:A 6.27718e-05
*RES
1 reg_op1[4] *481:A 23.086 
*END

*D_NET *190 0.000535361
*CONN
*P reg_op1[5] I
*I *482:A I *D sky130_fd_sc_hd__clkdlybuf4s50_1
*CAP
1 reg_op1[5] 0.000163917
2 *482:A 0.000163917
3 *482:A *483:A 7.17176e-06
4 *482:A *514:A 4.25268e-05
5 *481:A *482:A 0.000157828
6 *547:A *482:A 0
*RES
1 reg_op1[5] *482:A 20.6195 
*END

*D_NET *191 0.000623177
*CONN
*P reg_op1[6] I
*I *483:A I *D sky130_fd_sc_hd__clkdlybuf4s50_1
*CAP
1 reg_op1[6] 0.000251531
2 *483:A 0.000251531
3 *483:A alu_out[4] 0
4 *483:A *484:A 0
5 *483:A *514:A 4.69062e-05
6 *483:A *515:A 6.60375e-05
7 *481:A *483:A 0
8 *482:A *483:A 7.17176e-06
*RES
1 reg_op1[6] *483:A 18.3246 
*END

*D_NET *192 0.000822034
*CONN
*P reg_op1[7] I
*I *484:A I *D sky130_fd_sc_hd__clkdlybuf4s50_1
*CAP
1 reg_op1[7] 0.000318514
2 *484:A 0.000318514
3 *484:A alu_out[7] 4.66716e-05
4 *484:A *494:A 6.18866e-05
5 *484:A *515:A 9.71135e-06
6 *484:A *516:A 6.67357e-05
7 *483:A *484:A 0
*RES
1 reg_op1[7] *484:A 19.9856 
*END

*D_NET *193 0.000702501
*CONN
*P reg_op1[8] I
*I *485:A I *D sky130_fd_sc_hd__clkdlybuf4s50_1
*CAP
1 reg_op1[8] 0.000110313
2 *485:A 0.000110313
3 *485:A *492:A 0.000230574
4 *326:A *485:A 4.75721e-06
5 *326:B *485:A 0
6 *462:A *485:A 0.000246543
7 *159:10 *485:A 0
*RES
1 reg_op1[8] *485:A 18.6634 
*END

*D_NET *194 0.00110848
*CONN
*P reg_op1[9] I
*I *486:A I *D sky130_fd_sc_hd__clkdlybuf4s50_1
*CAP
1 reg_op1[9] 0.000225697
2 *486:A 0.000225697
3 *486:A alu_out[12] 0.000340578
4 *486:A *491:A 0.000316512
5 *159:10 *486:A 0
*RES
1 reg_op1[9] *486:A 19.3846 
*END

*D_NET *195 0.000458337
*CONN
*P reg_op2[0] I
*I *487:A I *D sky130_fd_sc_hd__clkbuf_2
*CAP
1 reg_op2[0] 0.000116472
2 *487:A 0.000116472
3 *487:A alu_out[1] 0.000105642
4 *487:A alu_out[5] 0.000109816
5 *487:A *389:B 0
6 *487:A *498:A 9.93468e-06
*RES
1 reg_op2[0] *487:A 18.2809 
*END

*D_NET *196 0.000853083
*CONN
*P reg_op2[10] I
*I *488:A I *D sky130_fd_sc_hd__clkdlybuf4s50_1
*CAP
1 reg_op2[10] 0.000355415
2 *488:A 0.000355415
3 *488:A alu_out[11] 6.96594e-05
4 *459:A *488:A 7.2593e-05
*RES
1 reg_op2[10] *488:A 23.5262 
*END

*D_NET *197 0.000219697
*CONN
*P reg_op2[11] I
*I *489:A I *D sky130_fd_sc_hd__clkdlybuf4s50_1
*CAP
1 reg_op2[11] 4.16511e-05
2 *489:A 4.16511e-05
3 *489:A *490:A 6.96594e-05
4 *457:A *489:A 6.67357e-05
*RES
1 reg_op2[11] *489:A 17.7127 
*END

*D_NET *198 0.00332106
*CONN
*P reg_op2[12] I
*I *490:A I *D sky130_fd_sc_hd__clkdlybuf4s50_1
*CAP
1 reg_op2[12] 0.00107976
2 *490:A 0.00107976
3 *490:A *403:A 0
4 *490:A *491:A 0.000984003
5 *402:B *490:A 0
6 *457:A *490:A 7.42496e-05
7 *459:A *490:A 3.36207e-05
8 *461:A *490:A 0
9 *489:A *490:A 6.96594e-05
*RES
1 reg_op2[12] *490:A 22.7721 
*END

*D_NET *199 0.00406968
*CONN
*P reg_op2[13] I
*I *491:A I *D sky130_fd_sc_hd__clkdlybuf4s50_1
*CAP
1 reg_op2[13] 0.00114559
2 *491:A 0.00114559
3 *491:A alu_out[12] 0.00029037
4 *491:A *303:16 0
5 *333:A *491:A 0
6 *461:A *491:A 0
7 *486:A *491:A 0.000316512
8 *490:A *491:A 0.000984003
9 *595:A *491:A 0.000187618
*RES
1 reg_op2[13] *491:A 24.597 
*END

*D_NET *200 0.00204996
*CONN
*P reg_op2[14] I
*I *492:A I *D sky130_fd_sc_hd__clkdlybuf4s50_1
*CAP
1 reg_op2[14] 0.000533165
2 *492:A 0.000533165
3 *492:A alu_out[13] 0.000262326
4 *492:A alu_out[9] 0.00027223
5 *462:A *492:A 0.00017134
6 *485:A *492:A 0.000230574
7 *16:8 *492:A 4.71606e-05
*RES
1 reg_op2[14] *492:A 22.9896 
*END

*D_NET *201 0.0033581
*CONN
*P reg_op2[15] I
*I *493:A I *D sky130_fd_sc_hd__clkdlybuf4s50_1
*CAP
1 reg_op2[15] 0.00054707
2 *493:A 0.00054707
3 *493:A alu_out[14] 0.000405166
4 *493:A alu_out[15] 0.0018588
*RES
1 reg_op2[15] *493:A 20.2967 
*END

*D_NET *202 0.00299687
*CONN
*P reg_op2[16] I
*I *494:A I *D sky130_fd_sc_hd__clkdlybuf4s50_1
*CAP
1 reg_op2[16] 0.00100611
2 *494:A 0.00100611
3 *494:A alu_out[15] 0.000859087
4 *494:A *516:A 6.36804e-05
5 *484:A *494:A 6.18866e-05
*RES
1 reg_op2[16] *494:A 21.8651 
*END

*D_NET *203 0.00479527
*CONN
*P reg_op2[17] I
*I *495:A I *D sky130_fd_sc_hd__clkdlybuf4s50_1
*CAP
1 reg_op2[17] 0.00164622
2 *495:A 0.00164622
3 *495:A alu_out[19] 8.69615e-05
4 *495:A alu_out[20] 0
5 *495:A alu_out[24] 4.69062e-05
6 *495:A *355:A 0.000117045
7 *353:C *495:A 0.000171288
8 *471:A *495:A 0.000196911
9 *528:A *495:A 0.000124641
10 *529:A *495:A 0.00010012
11 *74:12 *495:A 0
12 *137:10 *495:A 6.92705e-05
13 *139:14 *495:A 0.000589689
*RES
1 reg_op2[17] *495:A 46.6137 
*END

*D_NET *204 0.00261671
*CONN
*P reg_op2[18] I
*I *496:A I *D sky130_fd_sc_hd__clkdlybuf4s50_1
*CAP
1 reg_op2[18] 0.0011056
2 *496:A 0.0011056
3 *463:A *496:A 0.000391723
4 *464:A *496:A 1.37846e-05
5 *467:A *496:A 0
*RES
1 reg_op2[18] *496:A 20.4227 
*END

*D_NET *205 0.00159974
*CONN
*P reg_op2[19] I
*I *497:A I *D sky130_fd_sc_hd__clkdlybuf4s50_1
*CAP
1 reg_op2[19] 0.00013224
2 *497:A 0.00013224
3 *497:A alu_out[20] 0.000949866
4 *497:A *502:A 0.000366684
5 *465:A *497:A 1.87111e-05
*RES
1 reg_op2[19] *497:A 18.7836 
*END

*D_NET *206 0.00209534
*CONN
*P reg_op2[1] I
*I *498:A I *D sky130_fd_sc_hd__buf_6
*CAP
1 reg_op2[1] 0.000863002
2 *498:A 0.000863002
3 *498:A alu_out[1] 4.10489e-05
4 *498:A alu_out[5] 0
5 *455:A *498:A 8.26998e-05
6 *466:A *498:A 6.96497e-05
7 *487:A *498:A 9.93468e-06
8 *546:A *498:A 0.000129609
9 *582:A *498:A 3.59298e-05
10 *97:8 *498:A 4.60375e-07
*RES
1 reg_op2[1] *498:A 37.3435 
*END

*D_NET *207 0.00378349
*CONN
*P reg_op2[20] I
*I *499:A I *D sky130_fd_sc_hd__clkdlybuf4s50_1
*CAP
1 reg_op2[20] 0.00123903
2 *499:A 0.00123903
3 *499:A alu_out[22] 4.69062e-05
4 *499:A *501:A 0.000407364
5 *357:A *499:A 6.27718e-05
6 *357:B *499:A 0.000102384
7 *465:A *499:A 0
8 *469:A *499:A 0.000192078
9 *532:A *499:A 0.000139642
10 *533:A *499:A 0
11 *141:10 *499:A 0.000261135
12 *142:12 *499:A 9.31472e-05
*RES
1 reg_op2[20] *499:A 37.4357 
*END

*D_NET *208 0.00371754
*CONN
*P reg_op2[21] I
*I *500:A I *D sky130_fd_sc_hd__clkdlybuf4s50_1
*CAP
1 reg_op2[21] 0.000542691
2 *500:A 0.000542691
3 *500:A *358:A 7.86825e-06
4 *358:B *500:A 2.37478e-05
5 *467:A *500:A 0.00169818
6 *468:A *500:A 0.000773762
7 *469:A *500:A 0.000128605
*RES
1 reg_op2[21] *500:A 20.3732 
*END

*D_NET *209 0.00167578
*CONN
*P reg_op2[22] I
*I *501:A I *D sky130_fd_sc_hd__clkdlybuf4s50_1
*CAP
1 reg_op2[22] 0.000431484
2 *501:A 0.000431484
3 *501:A alu_out[21] 0.000405451
4 *499:A *501:A 0.000407364
*RES
1 reg_op2[22] *501:A 20.7505 
*END

*D_NET *210 0.00112164
*CONN
*P reg_op2[23] I
*I *502:A I *D sky130_fd_sc_hd__clkdlybuf4s50_1
*CAP
1 reg_op2[23] 0.000224355
2 *502:A 0.000224355
3 *465:A *502:A 0.000306247
4 *497:A *502:A 0.000366684
5 *535:A *502:A 0
*RES
1 reg_op2[23] *502:A 19.4611 
*END

*D_NET *211 0.000827335
*CONN
*P reg_op2[24] I
*I *503:A I *D sky130_fd_sc_hd__clkdlybuf4s50_1
*CAP
1 reg_op2[24] 8.13451e-05
2 *503:A 8.13451e-05
3 *503:A alu_out[17] 0.000220872
4 *463:A *503:A 0.000443773
5 *45:12 *503:A 0
*RES
1 reg_op2[24] *503:A 18.1717 
*END

*D_NET *212 0.000998302
*CONN
*P reg_op2[25] I
*I *504:A I *D sky130_fd_sc_hd__clkdlybuf4s50_1
*CAP
1 reg_op2[25] 0.000135932
2 *504:A 0.000135932
3 *472:A *504:A 0.00034282
4 *473:A *504:A 0.000374992
5 *45:12 *504:A 8.62625e-06
*RES
1 reg_op2[25] *504:A 18.6306 
*END

*D_NET *213 0.000698297
*CONN
*P reg_op2[26] I
*I *505:A I *D sky130_fd_sc_hd__clkdlybuf4s50_1
*CAP
1 reg_op2[26] 0.00015283
2 *505:A 0.00015283
3 *505:A alu_out[27] 0.000159898
4 *505:A *506:A 2.32501e-05
5 *473:A *505:A 0.00020949
*RES
1 reg_op2[26] *505:A 18.6634 
*END

*D_NET *214 0.00310629
*CONN
*P reg_op2[27] I
*I *506:A I *D sky130_fd_sc_hd__clkdlybuf4s50_1
*CAP
1 reg_op2[27] 0.00118889
2 *506:A 0.00118889
3 *506:A alu_out[27] 0.000137833
4 *506:A alu_out[28] 0.000206747
5 *506:A *376:A 7.09666e-06
6 *506:A *507:A 0.000346937
7 *377:A *506:A 6.64671e-06
8 *474:A *506:A 0
9 *505:A *506:A 2.32501e-05
*RES
1 reg_op2[27] *506:A 23.1022 
*END

*D_NET *215 0.00403225
*CONN
*P reg_op2[28] I
*I *507:A I *D sky130_fd_sc_hd__clkdlybuf4s50_1
*CAP
1 reg_op2[28] 0.00119794
2 *507:A 0.00119794
3 *507:A alu_out[28] 0.000188336
4 *507:A *373:A 1.23348e-05
5 *507:A *376:A 0.000211546
6 *372:A *507:A 7.09666e-06
7 *373:B *507:A 0.000148779
8 *474:A *507:A 0.000213584
9 *506:A *507:A 0.000346937
10 *538:A *507:A 0.000322677
11 *149:10 *507:A 0.00016386
12 *183:15 *507:A 2.12195e-05
*RES
1 reg_op2[28] *507:A 41.0228 
*END

*D_NET *216 0.00194762
*CONN
*P reg_op2[29] I
*I *508:A I *D sky130_fd_sc_hd__clkdlybuf4s50_1
*CAP
1 reg_op2[29] 0.000763565
2 *508:A 0.000763565
3 *508:A alu_out[29] 0.000116536
4 *508:A *510:A 9.28299e-05
5 *383:C *508:A 0.000168271
6 *543:A *508:A 8.36586e-06
7 *184:15 *508:A 1.53776e-05
8 *186:15 *508:A 1.91072e-05
*RES
1 reg_op2[29] *508:A 30.9842 
*END

*D_NET *217 0.000993136
*CONN
*P reg_op2[2] I
*I *509:A I *D sky130_fd_sc_hd__dlymetal6s2s_1
*CAP
1 reg_op2[2] 0.000392364
2 *509:A 0.000392364
3 *509:A alu_out[6] 4.10489e-05
4 *477:A *509:A 8.18847e-05
5 *480:A *509:A 1.53763e-05
6 *546:A *509:A 7.00991e-05
7 *140:20 *509:A 0
*RES
1 reg_op2[2] *509:A 25.4437 
*END

*D_NET *218 0.00268233
*CONN
*P reg_op2[30] I
*I *510:A I *D sky130_fd_sc_hd__clkdlybuf4s50_1
*CAP
1 reg_op2[30] 0.00119623
2 *510:A 0.00119623
3 *510:A alu_out[29] 0
4 *386:B *510:A 0
5 *474:A *510:A 0
6 *479:A *510:A 0.000177693
7 *508:A *510:A 9.28299e-05
8 *186:15 *510:A 1.93507e-05
*RES
1 reg_op2[30] *510:A 24.3457 
*END

*D_NET *219 0.00133692
*CONN
*P reg_op2[31] I
*I *511:A I *D sky130_fd_sc_hd__clkdlybuf4s50_1
*CAP
1 reg_op2[31] 0.000402994
2 *511:A 0.000402994
3 *511:A alu_out[30] 4.19527e-05
4 *511:A alu_out[31] 5.15865e-05
5 *387:A *511:A 2.97693e-05
6 *387:B *511:A 6.27718e-05
7 *479:A *511:A 0.000187618
8 *537:A *511:A 0
9 *186:15 *511:A 0.000157238
*RES
1 reg_op2[31] *511:A 24.023 
*END

*D_NET *220 0.0023948
*CONN
*P reg_op2[3] I
*I *512:A I *D sky130_fd_sc_hd__clkdlybuf4s50_1
*CAP
1 reg_op2[3] 0.000943018
2 *512:A 0.000943018
3 *512:A alu_out[4] 0.000233937
4 *512:A alu_out[6] 0.000115411
5 *512:A *513:A 4.25268e-05
6 *477:A *512:A 0
7 *480:A *512:A 0.000116891
*RES
1 reg_op2[3] *512:A 22.8377 
*END

*D_NET *221 0.00034032
*CONN
*P reg_op2[4] I
*I *513:A I *D sky130_fd_sc_hd__clkdlybuf4s50_1
*CAP
1 reg_op2[4] 8.66278e-05
2 *513:A 8.66278e-05
3 *513:A alu_out[4] 4.27752e-05
4 *513:A alu_out[6] 2.16355e-05
5 *512:A *513:A 4.25268e-05
6 *546:A *513:A 6.01271e-05
*RES
1 reg_op2[4] *513:A 19.1901 
*END

*D_NET *222 0.000672354
*CONN
*P reg_op2[5] I
*I *514:A I *D sky130_fd_sc_hd__clkdlybuf4s50_1
*CAP
1 reg_op2[5] 0.000288936
2 *514:A 0.000288936
3 *482:A *514:A 4.25268e-05
4 *483:A *514:A 4.69062e-05
5 *547:A *514:A 5.04829e-06
*RES
1 reg_op2[5] *514:A 23.627 
*END

*D_NET *223 0.000317022
*CONN
*P reg_op2[6] I
*I *515:A I *D sky130_fd_sc_hd__clkdlybuf4s50_1
*CAP
1 reg_op2[6] 9.71836e-05
2 *515:A 9.71836e-05
3 *515:A alu_out[7] 4.69062e-05
4 *483:A *515:A 6.60375e-05
5 *484:A *515:A 9.71135e-06
*RES
1 reg_op2[6] *515:A 18.9585 
*END

*D_NET *224 0.000222661
*CONN
*P reg_op2[7] I
*I *516:A I *D sky130_fd_sc_hd__clkdlybuf4s50_1
*CAP
1 reg_op2[7] 4.61224e-05
2 *516:A 4.61224e-05
3 *484:A *516:A 6.67357e-05
4 *494:A *516:A 6.36804e-05
*RES
1 reg_op2[7] *516:A 17.7127 
*END

*D_NET *225 0.000801664
*CONN
*P reg_op2[8] I
*I *517:A I *D sky130_fd_sc_hd__clkdlybuf4s50_1
*CAP
1 reg_op2[8] 0.000341857
2 *517:A 0.000341857
3 *517:A alu_out[11] 0
4 *517:A *518:A 0.00011795
5 *159:10 *517:A 0
6 *160:10 *517:A 0
*RES
1 reg_op2[8] *517:A 22.6555 
*END

*D_NET *226 0.000395926
*CONN
*P reg_op2[9] I
*I *518:A I *D sky130_fd_sc_hd__clkdlybuf4s50_1
*CAP
1 reg_op2[9] 0.000138988
2 *518:A 0.000138988
3 *517:A *518:A 0.00011795
*RES
1 reg_op2[9] *518:A 18.1948 
*END
