*SPEF "ieee 1481-1999"
*DESIGN "rv32_add"
*DATE "15:44:52 Saturday September 26, 2026"
*VENDOR "The OpenROAD Project"
*PROGRAM "OpenROAD"
*VERSION "unknown"
*DESIGN_FLOW "NAME_SCOPE LOCAL" "PIN_CAP NONE"
*DIVIDER /
*DELIMITER :
*BUS_DELIMITER []
*T_UNIT 1 NS
*C_UNIT 1 PF
*R_UNIT 1 OHM
*L_UNIT 1 HENRY

*NAME_MAP
*1 _000_
*2 _001_
*3 _002_
*4 _003_
*5 _004_
*6 _005_
*7 _006_
*8 _007_
*9 _008_
*10 _009_
*11 _010_
*12 _011_
*13 _012_
*14 _013_
*15 _014_
*16 _015_
*17 _016_
*18 _017_
*19 _018_
*20 _019_
*21 _020_
*22 _021_
*23 _022_
*24 _023_
*25 _024_
*26 _025_
*27 _026_
*28 _027_
*29 _028_
*30 _029_
*31 _030_
*32 _031_
*33 _032_
*34 _033_
*35 _034_
*36 _035_
*37 _036_
*38 _037_
*39 _038_
*40 _039_
*41 _040_
*42 _041_
*43 _042_
*44 _043_
*45 _044_
*46 _045_
*47 _046_
*48 _047_
*49 _048_
*50 _049_
*51 _050_
*52 _051_
*53 _052_
*54 _053_
*55 _054_
*56 _055_
*57 _056_
*58 _057_
*59 _058_
*60 _059_
*61 _060_
*62 _061_
*63 _062_
*64 _063_
*65 alu_out[0]
*66 alu_out[10]
*67 alu_out[11]
*68 alu_out[12]
*69 alu_out[13]
*70 alu_out[14]
*71 alu_out[15]
*72 alu_out[16]
*73 alu_out[17]
*74 alu_out[18]
*75 alu_out[19]
*76 alu_out[1]
*77 alu_out[20]
*78 alu_out[21]
*79 alu_out[22]
*80 alu_out[23]
*81 alu_out[24]
*82 alu_out[25]
*83 alu_out[26]
*84 alu_out[27]
*85 alu_out[28]
*86 alu_out[29]
*87 alu_out[2]
*163 alu_out[30]
*89 alu_out[31]
*90 alu_out[3]
*91 alu_out[4]
*92 alu_out[5]
*93 alu_out[6]
*94 alu_out[7]
*95 alu_out[8]
*96 alu_out[9]
*88 net1
*179 net17
*164 net18
*165 net19
*166 net20
*168 net21
*169 net22
*170 net23
*171 net24
*172 net25
*173 net26
*174 net27
*175 net28
*176 net29
*177 net30
*178 net31
*167 net32
*97 reg_op1[0]
*98 reg_op1[10]
*99 reg_op1[11]
*100 reg_op1[12]
*101 reg_op1[13]
*102 reg_op1[14]
*103 reg_op1[15]
*104 reg_op1[16]
*105 reg_op1[17]
*106 reg_op1[18]
*107 reg_op1[19]
*108 reg_op1[1]
*109 reg_op1[20]
*110 reg_op1[21]
*111 reg_op1[22]
*112 reg_op1[23]
*113 reg_op1[24]
*114 reg_op1[25]
*115 reg_op1[26]
*116 reg_op1[27]
*117 reg_op1[28]
*118 reg_op1[29]
*119 reg_op1[2]
*120 reg_op1[30]
*121 reg_op1[31]
*122 reg_op1[3]
*123 reg_op1[4]
*124 reg_op1[5]
*125 reg_op1[6]
*126 reg_op1[7]
*127 reg_op1[8]
*128 reg_op1[9]
*129 reg_op2[0]
*130 reg_op2[10]
*131 reg_op2[11]
*132 reg_op2[12]
*133 reg_op2[13]
*134 reg_op2[14]
*135 reg_op2[15]
*136 reg_op2[16]
*137 reg_op2[17]
*138 reg_op2[18]
*139 reg_op2[19]
*140 reg_op2[1]
*141 reg_op2[20]
*142 reg_op2[21]
*143 reg_op2[22]
*144 reg_op2[23]
*145 reg_op2[24]
*146 reg_op2[25]
*147 reg_op2[26]
*148 reg_op2[27]
*149 reg_op2[28]
*150 reg_op2[29]
*151 reg_op2[2]
*152 reg_op2[30]
*153 reg_op2[31]
*154 reg_op2[3]
*155 reg_op2[4]
*156 reg_op2[5]
*157 reg_op2[6]
*158 reg_op2[7]
*159 reg_op2[8]
*160 reg_op2[9]
*343 FILLER_0_0
*361 FILLER_0_107
*362 FILLER_0_115
*363 FILLER_0_119
*364 FILLER_0_128
*365 FILLER_0_136
*366 FILLER_0_140
*345 FILLER_0_15
*346 FILLER_0_17
*347 FILLER_0_24
*348 FILLER_0_28
*349 FILLER_0_31
*350 FILLER_0_39
*344 FILLER_0_4
*351 FILLER_0_47
*352 FILLER_0_55
*353 FILLER_0_59
*354 FILLER_0_61
*355 FILLER_0_69
*356 FILLER_0_77
*357 FILLER_0_85
*358 FILLER_0_89
*359 FILLER_0_91
*360 FILLER_0_99
*525 FILLER_10_0
*538 FILLER_10_107
*539 FILLER_10_138
*540 FILLER_10_140
*527 FILLER_10_22
*528 FILLER_10_31
*526 FILLER_10_4
*529 FILLER_10_47
*530 FILLER_10_55
*531 FILLER_10_63
*532 FILLER_10_71
*533 FILLER_10_79
*534 FILLER_10_87
*535 FILLER_10_89
*536 FILLER_10_91
*537 FILLER_10_99
*541 FILLER_11_0
*554 FILLER_11_101
*555 FILLER_11_109
*556 FILLER_11_117
*557 FILLER_11_119
*558 FILLER_11_121
*559 FILLER_11_132
*560 FILLER_11_140
*542 FILLER_11_17
*543 FILLER_11_25
*544 FILLER_11_33
*545 FILLER_11_41
*546 FILLER_11_49
*547 FILLER_11_57
*548 FILLER_11_59
*549 FILLER_11_61
*550 FILLER_11_69
*551 FILLER_11_77
*552 FILLER_11_85
*553 FILLER_11_93
*561 FILLER_12_0
*576 FILLER_12_107
*577 FILLER_12_138
*578 FILLER_12_140
*563 FILLER_12_24
*564 FILLER_12_28
*565 FILLER_12_31
*566 FILLER_12_39
*567 FILLER_12_47
*568 FILLER_12_55
*569 FILLER_12_63
*570 FILLER_12_71
*571 FILLER_12_79
*572 FILLER_12_87
*573 FILLER_12_89
*562 FILLER_12_9
*574 FILLER_12_91
*575 FILLER_12_99
*593 FILLER_13_101
*594 FILLER_13_109
*595 FILLER_13_117
*596 FILLER_13_119
*580 FILLER_13_13
*597 FILLER_13_137
*581 FILLER_13_21
*582 FILLER_13_29
*583 FILLER_13_37
*584 FILLER_13_45
*585 FILLER_13_53
*586 FILLER_13_57
*587 FILLER_13_59
*588 FILLER_13_61
*589 FILLER_13_69
*590 FILLER_13_77
*591 FILLER_13_85
*579 FILLER_13_9
*592 FILLER_13_93
*613 FILLER_14_107
*614 FILLER_14_115
*615 FILLER_14_123
*616 FILLER_14_139
*598 FILLER_14_16
*599 FILLER_14_18
*600 FILLER_14_25
*601 FILLER_14_29
*602 FILLER_14_31
*603 FILLER_14_39
*604 FILLER_14_47
*605 FILLER_14_55
*606 FILLER_14_63
*607 FILLER_14_71
*608 FILLER_14_79
*609 FILLER_14_87
*610 FILLER_14_89
*611 FILLER_14_91
*612 FILLER_14_99
*617 FILLER_15_0
*630 FILLER_15_101
*631 FILLER_15_109
*632 FILLER_15_117
*633 FILLER_15_119
*634 FILLER_15_121
*635 FILLER_15_137
*618 FILLER_15_17
*619 FILLER_15_25
*620 FILLER_15_33
*621 FILLER_15_41
*622 FILLER_15_49
*623 FILLER_15_57
*624 FILLER_15_59
*625 FILLER_15_61
*626 FILLER_15_69
*627 FILLER_15_77
*628 FILLER_15_85
*629 FILLER_15_93
*650 FILLER_16_107
*651 FILLER_16_111
*652 FILLER_16_129
*653 FILLER_16_138
*654 FILLER_16_140
*637 FILLER_16_21
*638 FILLER_16_29
*639 FILLER_16_31
*640 FILLER_16_39
*641 FILLER_16_47
*642 FILLER_16_55
*643 FILLER_16_63
*636 FILLER_16_7
*644 FILLER_16_71
*645 FILLER_16_79
*646 FILLER_16_87
*647 FILLER_16_89
*648 FILLER_16_91
*649 FILLER_16_99
*655 FILLER_17_0
*668 FILLER_17_101
*669 FILLER_17_109
*670 FILLER_17_117
*671 FILLER_17_119
*672 FILLER_17_121
*673 FILLER_17_129
*674 FILLER_17_131
*675 FILLER_17_139
*656 FILLER_17_17
*657 FILLER_17_25
*658 FILLER_17_33
*659 FILLER_17_41
*660 FILLER_17_49
*661 FILLER_17_57
*662 FILLER_17_59
*663 FILLER_17_61
*664 FILLER_17_69
*665 FILLER_17_77
*666 FILLER_17_85
*667 FILLER_17_93
*676 FILLER_18_0
*691 FILLER_18_107
*692 FILLER_18_115
*693 FILLER_18_125
*694 FILLER_18_140
*677 FILLER_18_17
*678 FILLER_18_25
*679 FILLER_18_29
*680 FILLER_18_31
*681 FILLER_18_39
*682 FILLER_18_47
*683 FILLER_18_55
*684 FILLER_18_63
*685 FILLER_18_71
*686 FILLER_18_79
*687 FILLER_18_87
*688 FILLER_18_89
*689 FILLER_18_91
*690 FILLER_18_99
*695 FILLER_19_0
*708 FILLER_19_101
*709 FILLER_19_109
*710 FILLER_19_117
*711 FILLER_19_119
*712 FILLER_19_121
*713 FILLER_19_138
*714 FILLER_19_140
*697 FILLER_19_16
*698 FILLER_19_24
*699 FILLER_19_32
*700 FILLER_19_40
*701 FILLER_19_48
*702 FILLER_19_56
*703 FILLER_19_61
*704 FILLER_19_69
*705 FILLER_19_77
*696 FILLER_19_8
*706 FILLER_19_85
*707 FILLER_19_93
*367 FILLER_1_0
*379 FILLER_1_101
*380 FILLER_1_109
*381 FILLER_1_117
*382 FILLER_1_119
*383 FILLER_1_121
*384 FILLER_1_138
*385 FILLER_1_140
*368 FILLER_1_25
*369 FILLER_1_33
*370 FILLER_1_41
*371 FILLER_1_49
*372 FILLER_1_57
*373 FILLER_1_59
*374 FILLER_1_61
*375 FILLER_1_69
*376 FILLER_1_77
*377 FILLER_1_85
*378 FILLER_1_93
*729 FILLER_20_107
*730 FILLER_20_115
*731 FILLER_20_135
*732 FILLER_20_139
*715 FILLER_20_17
*716 FILLER_20_25
*717 FILLER_20_29
*718 FILLER_20_31
*719 FILLER_20_39
*720 FILLER_20_47
*721 FILLER_20_55
*722 FILLER_20_63
*723 FILLER_20_71
*724 FILLER_20_79
*725 FILLER_20_87
*726 FILLER_20_89
*727 FILLER_20_91
*728 FILLER_20_99
*746 FILLER_21_101
*747 FILLER_21_109
*748 FILLER_21_121
*734 FILLER_21_13
*735 FILLER_21_19
*736 FILLER_21_27
*733 FILLER_21_3
*737 FILLER_21_35
*738 FILLER_21_43
*739 FILLER_21_51
*740 FILLER_21_59
*741 FILLER_21_61
*742 FILLER_21_69
*743 FILLER_21_77
*744 FILLER_21_85
*745 FILLER_21_93
*749 FILLER_22_0
*766 FILLER_22_107
*767 FILLER_22_115
*768 FILLER_22_119
*769 FILLER_22_128
*770 FILLER_22_136
*771 FILLER_22_140
*751 FILLER_22_16
*752 FILLER_22_24
*753 FILLER_22_28
*754 FILLER_22_31
*755 FILLER_22_39
*756 FILLER_22_47
*757 FILLER_22_55
*758 FILLER_22_59
*759 FILLER_22_61
*760 FILLER_22_69
*761 FILLER_22_77
*750 FILLER_22_8
*762 FILLER_22_85
*763 FILLER_22_89
*764 FILLER_22_91
*765 FILLER_22_99
*386 FILLER_2_0
*400 FILLER_2_107
*401 FILLER_2_115
*402 FILLER_2_119
*403 FILLER_2_138
*404 FILLER_2_140
*387 FILLER_2_27
*388 FILLER_2_29
*389 FILLER_2_31
*390 FILLER_2_39
*391 FILLER_2_47
*392 FILLER_2_55
*393 FILLER_2_63
*394 FILLER_2_71
*395 FILLER_2_79
*396 FILLER_2_87
*397 FILLER_2_89
*398 FILLER_2_91
*399 FILLER_2_99
*416 FILLER_3_101
*417 FILLER_3_109
*418 FILLER_3_121
*419 FILLER_3_132
*406 FILLER_3_18
*407 FILLER_3_35
*408 FILLER_3_43
*409 FILLER_3_51
*410 FILLER_3_59
*411 FILLER_3_61
*412 FILLER_3_69
*405 FILLER_3_7
*413 FILLER_3_77
*414 FILLER_3_85
*415 FILLER_3_93
*420 FILLER_4_0
*435 FILLER_4_107
*436 FILLER_4_115
*437 FILLER_4_123
*438 FILLER_4_131
*439 FILLER_4_139
*422 FILLER_4_21
*423 FILLER_4_29
*424 FILLER_4_31
*425 FILLER_4_39
*421 FILLER_4_4
*426 FILLER_4_47
*427 FILLER_4_55
*428 FILLER_4_63
*429 FILLER_4_71
*430 FILLER_4_79
*431 FILLER_4_87
*432 FILLER_4_89
*433 FILLER_4_91
*434 FILLER_4_99
*450 FILLER_5_101
*451 FILLER_5_109
*452 FILLER_5_117
*453 FILLER_5_119
*454 FILLER_5_121
*440 FILLER_5_26
*441 FILLER_5_34
*442 FILLER_5_42
*443 FILLER_5_50
*444 FILLER_5_58
*445 FILLER_5_61
*446 FILLER_5_69
*447 FILLER_5_77
*448 FILLER_5_85
*449 FILLER_5_93
*455 FILLER_6_0
*470 FILLER_6_107
*471 FILLER_6_115
*472 FILLER_6_139
*456 FILLER_6_16
*457 FILLER_6_24
*458 FILLER_6_28
*459 FILLER_6_31
*460 FILLER_6_39
*461 FILLER_6_47
*462 FILLER_6_55
*463 FILLER_6_63
*464 FILLER_6_71
*465 FILLER_6_79
*466 FILLER_6_87
*467 FILLER_6_89
*468 FILLER_6_91
*469 FILLER_6_99
*485 FILLER_7_101
*486 FILLER_7_109
*487 FILLER_7_117
*488 FILLER_7_119
*489 FILLER_7_121
*490 FILLER_7_125
*474 FILLER_7_18
*475 FILLER_7_26
*476 FILLER_7_34
*477 FILLER_7_42
*478 FILLER_7_50
*479 FILLER_7_58
*480 FILLER_7_61
*481 FILLER_7_69
*473 FILLER_7_7
*482 FILLER_7_77
*483 FILLER_7_85
*484 FILLER_7_93
*505 FILLER_8_107
*506 FILLER_8_111
*507 FILLER_8_122
*508 FILLER_8_139
*491 FILLER_8_16
*492 FILLER_8_24
*493 FILLER_8_28
*494 FILLER_8_31
*495 FILLER_8_39
*496 FILLER_8_47
*497 FILLER_8_55
*498 FILLER_8_63
*499 FILLER_8_71
*500 FILLER_8_79
*501 FILLER_8_87
*502 FILLER_8_89
*503 FILLER_8_91
*504 FILLER_8_99
*509 FILLER_9_0
*521 FILLER_9_101
*522 FILLER_9_109
*523 FILLER_9_136
*524 FILLER_9_140
*510 FILLER_9_22
*511 FILLER_9_37
*512 FILLER_9_41
*513 FILLER_9_43
*514 FILLER_9_51
*515 FILLER_9_59
*516 FILLER_9_61
*517 FILLER_9_69
*518 FILLER_9_77
*519 FILLER_9_85
*520 FILLER_9_93
*276 TAP_TAPCELL_ROW_0_0
*277 TAP_TAPCELL_ROW_0_1
*278 TAP_TAPCELL_ROW_0_2
*279 TAP_TAPCELL_ROW_0_3
*298 TAP_TAPCELL_ROW_10_22
*299 TAP_TAPCELL_ROW_10_23
*300 TAP_TAPCELL_ROW_11_24
*301 TAP_TAPCELL_ROW_11_25
*302 TAP_TAPCELL_ROW_12_26
*303 TAP_TAPCELL_ROW_12_27
*304 TAP_TAPCELL_ROW_13_28
*305 TAP_TAPCELL_ROW_13_29
*306 TAP_TAPCELL_ROW_14_30
*307 TAP_TAPCELL_ROW_14_31
*308 TAP_TAPCELL_ROW_15_32
*309 TAP_TAPCELL_ROW_15_33
*310 TAP_TAPCELL_ROW_16_34
*311 TAP_TAPCELL_ROW_16_35
*312 TAP_TAPCELL_ROW_17_36
*313 TAP_TAPCELL_ROW_17_37
*314 TAP_TAPCELL_ROW_18_38
*315 TAP_TAPCELL_ROW_18_39
*316 TAP_TAPCELL_ROW_19_40
*317 TAP_TAPCELL_ROW_19_41
*280 TAP_TAPCELL_ROW_1_4
*281 TAP_TAPCELL_ROW_1_5
*318 TAP_TAPCELL_ROW_20_42
*319 TAP_TAPCELL_ROW_20_43
*320 TAP_TAPCELL_ROW_21_44
*321 TAP_TAPCELL_ROW_21_45
*322 TAP_TAPCELL_ROW_22_46
*323 TAP_TAPCELL_ROW_22_47
*324 TAP_TAPCELL_ROW_22_48
*325 TAP_TAPCELL_ROW_22_49
*282 TAP_TAPCELL_ROW_2_6
*283 TAP_TAPCELL_ROW_2_7
*284 TAP_TAPCELL_ROW_3_8
*285 TAP_TAPCELL_ROW_3_9
*286 TAP_TAPCELL_ROW_4_10
*287 TAP_TAPCELL_ROW_4_11
*288 TAP_TAPCELL_ROW_5_12
*289 TAP_TAPCELL_ROW_5_13
*290 TAP_TAPCELL_ROW_6_14
*291 TAP_TAPCELL_ROW_6_15
*292 TAP_TAPCELL_ROW_7_16
*293 TAP_TAPCELL_ROW_7_17
*294 TAP_TAPCELL_ROW_8_18
*295 TAP_TAPCELL_ROW_8_19
*296 TAP_TAPCELL_ROW_9_20
*297 TAP_TAPCELL_ROW_9_21
*180 _064_
*181 _065_
*182 _066_
*183 _067_
*184 _068_
*185 _069_
*186 _070_
*187 _071_
*188 _072_
*189 _073_
*190 _074_
*191 _075_
*192 _076_
*193 _077_
*194 _078_
*195 _079_
*196 _080_
*197 _081_
*198 _082_
*199 _083_
*200 _084_
*201 _085_
*202 _086_
*203 _087_
*204 _088_
*205 _089_
*206 _090_
*207 _091_
*208 _092_
*209 _093_
*210 _094_
*211 _095_
*212 _096_
*213 _097_
*214 _098_
*215 _099_
*216 _100_
*217 _101_
*218 _102_
*219 _103_
*220 _104_
*221 _105_
*222 _106_
*223 _107_
*224 _108_
*225 _109_
*226 _110_
*227 _111_
*228 _112_
*229 _113_
*230 _114_
*231 _115_
*232 _116_
*233 _117_
*234 _118_
*235 _119_
*236 _120_
*237 _121_
*238 _122_
*239 _123_
*240 _124_
*241 _125_
*242 _126_
*243 _127_
*244 _128_
*245 _129_
*246 _130_
*247 _131_
*248 _132_
*249 _133_
*250 _134_
*251 _135_
*252 _136_
*253 _137_
*254 _138_
*255 _139_
*256 _140_
*257 _141_
*258 _142_
*259 _143_
*260 _144_
*261 _145_
*262 _146_
*263 _147_
*264 _148_
*265 _149_
*266 _150_
*267 _151_
*268 _152_
*269 _153_
*270 _154_
*271 _155_
*272 _156_
*273 _157_
*274 _158_
*275 _159_
*326 place1
*342 place17
*327 place18
*328 place19
*329 place20
*331 place21
*332 place22
*333 place23
*334 place24
*335 place25
*336 place26
*337 place27
*338 place28
*339 place29
*340 place30
*341 place31
*330 place32

*PORTS
alu_out[0] O
alu_out[10] O
alu_out[11] O
alu_out[12] O
alu_out[13] O
alu_out[14] O
alu_out[15] O
alu_out[16] O
alu_out[17] O
alu_out[18] O
alu_out[19] O
alu_out[1] O
alu_out[20] O
alu_out[21] O
alu_out[22] O
alu_out[23] O
alu_out[24] O
alu_out[25] O
alu_out[26] O
alu_out[27] O
alu_out[28] O
alu_out[29] O
alu_out[2] O
alu_out[30] O
alu_out[31] O
alu_out[3] O
alu_out[4] O
alu_out[5] O
alu_out[6] O
alu_out[7] O
alu_out[8] O
alu_out[9] O
reg_op1[0] I
reg_op1[10] I
reg_op1[11] I
reg_op1[12] I
reg_op1[13] I
reg_op1[14] I
reg_op1[15] I
reg_op1[16] I
reg_op1[17] I
reg_op1[18] I
reg_op1[19] I
reg_op1[1] I
reg_op1[20] I
reg_op1[21] I
reg_op1[22] I
reg_op1[23] I
reg_op1[24] I
reg_op1[25] I
reg_op1[26] I
reg_op1[27] I
reg_op1[28] I
reg_op1[29] I
reg_op1[2] I
reg_op1[30] I
reg_op1[31] I
reg_op1[3] I
reg_op1[4] I
reg_op1[5] I
reg_op1[6] I
reg_op1[7] I
reg_op1[8] I
reg_op1[9] I
reg_op2[0] I
reg_op2[10] I
reg_op2[11] I
reg_op2[12] I
reg_op2[13] I
reg_op2[14] I
reg_op2[15] I
reg_op2[16] I
reg_op2[17] I
reg_op2[18] I
reg_op2[19] I
reg_op2[1] I
reg_op2[20] I
reg_op2[21] I
reg_op2[22] I
reg_op2[23] I
reg_op2[24] I
reg_op2[25] I
reg_op2[26] I
reg_op2[27] I
reg_op2[28] I
reg_op2[29] I
reg_op2[2] I
reg_op2[30] I
reg_op2[31] I
reg_op2[3] I
reg_op2[4] I
reg_op2[5] I
reg_op2[6] I
reg_op2[7] I
reg_op2[8] I
reg_op2[9] I

*D_NET *1 0.000298899
*CONN
*I *262:A I *D sky130_fd_sc_hd__xnor2_1
*I *183:Y O *D sky130_fd_sc_hd__xnor2_1
*CAP
1 *262:A 0.000122173
2 *183:Y 0.000122173
3 *262:A alu_out[2] 5.45523e-05
*RES
1 *183:Y *262:A 21.8741 
*END

*D_NET *2 0.00104231
*CONN
*I *187:A I *D sky130_fd_sc_hd__lpflow_isobufsrc_1
*I *188:B1 I *D sky130_fd_sc_hd__o21ai_1
*I *184:Y O *D sky130_fd_sc_hd__nand2_1
*CAP
1 *187:A 5.59727e-05
2 *188:B1 0
3 *184:Y 0.000185569
4 *2:6 0.000241541
5 *187:A *186:B 0
6 *187:A *187:SLEEP 4.61271e-05
7 *2:6 *186:A 0.000112361
8 *2:6 *186:B 6.27472e-05
9 *2:6 *187:SLEEP 0.000114271
10 *2:6 *188:A1 6.27782e-05
11 *2:6 *4:6 0.000160942
*RES
1 *184:Y *2:6 15.5186 
2 *2:6 *188:B1 9.24915 
3 *2:6 *187:A 11.1059 
*END

*D_NET *3 0.000678627
*CONN
*I *188:A1 I *D sky130_fd_sc_hd__o21ai_1
*I *261:A I *D sky130_fd_sc_hd__xnor2_1
*I *185:Y O *D sky130_fd_sc_hd__nand2_1
*CAP
1 *188:A1 0.000137651
2 *261:A 0.000116568
3 *185:Y 0.000254219
4 *188:A1 alu_out[0] 2.28129e-05
5 *188:A1 alu_out[1] 1.03594e-05
6 *188:A1 *6:12 1.60687e-05
7 *188:A1 *157:15 0
8 *261:A alu_out[1] 2.49496e-05
9 *261:A *185:A 3.3221e-05
10 *2:6 *188:A1 6.27782e-05
*RES
1 *185:Y *261:A 21.4642 
2 *185:Y *188:A1 30.8842 
*END

*D_NET *4 0.00086758
*CONN
*I *187:SLEEP I *D sky130_fd_sc_hd__lpflow_isobufsrc_1
*I *188:A2 I *D sky130_fd_sc_hd__o21ai_1
*I *186:Y O *D sky130_fd_sc_hd__nor2_2
*CAP
1 *187:SLEEP 0.000127014
2 *188:A2 0
3 *186:Y 6.5128e-05
4 *4:6 0.000192142
5 *187:SLEEP *261:B 0.000161956
6 *187:A *187:SLEEP 4.61271e-05
7 *2:6 *187:SLEEP 0.000114271
8 *2:6 *4:6 0.000160942
*RES
1 *186:Y *4:6 11.0817 
2 *4:6 *188:A2 9.24915 
3 *4:6 *187:SLEEP 13.7342 
*END

*D_NET *5 0.000747185
*CONN
*I *261:B I *D sky130_fd_sc_hd__xnor2_1
*I *187:X O *D sky130_fd_sc_hd__lpflow_isobufsrc_1
*CAP
1 *261:B 0.000266961
2 *187:X 0.000266961
3 *261:B *6:12 5.13058e-05
4 *187:SLEEP *261:B 0.000161956
*RES
1 *187:X *261:B 32.6874 
*END

*D_NET *6 0.00118372
*CONN
*I *262:B I *D sky130_fd_sc_hd__xnor2_1
*I *189:C I *D sky130_fd_sc_hd__maj3_2
*I *188:Y O *D sky130_fd_sc_hd__o21ai_1
*CAP
1 *262:B 0
2 *189:C 0.000202333
3 *188:Y 0.000281485
4 *6:12 0.000483817
5 *189:C *183:B 0
6 *189:C *263:A 0.000122378
7 *189:C *263:B 8.62625e-06
8 *189:C *123:17 2.87136e-06
9 *6:12 alu_out[1] 1.48325e-05
10 *6:12 *157:15 0
11 *188:A1 *6:12 1.60687e-05
12 *261:B *6:12 5.13058e-05
*RES
1 *188:Y *6:12 20.6374 
2 *6:12 *189:C 18.6595 
3 *6:12 *262:B 13.7491 
*END

*D_NET *7 0.000889607
*CONN
*I *263:A I *D sky130_fd_sc_hd__xnor2_1
*I *191:C I *D sky130_fd_sc_hd__maj3_2
*I *189:X O *D sky130_fd_sc_hd__maj3_2
*CAP
1 *263:A 0.000101726
2 *191:C 6.64835e-05
3 *189:X 0
4 *7:4 0.000168209
5 *191:C alu_out[3] 0.000116986
6 *191:C *191:A 6.08467e-05
7 *191:C *191:B 6.50586e-05
8 *191:C *123:17 0.000120584
9 *263:A alu_out[3] 6.73351e-05
10 *189:C *263:A 0.000122378
*RES
1 *189:X *7:4 9.24915 
2 *7:4 *191:C 21.2198 
3 *7:4 *263:A 12.625 
*END

*D_NET *8 0.000722427
*CONN
*I *263:B I *D sky130_fd_sc_hd__xnor2_1
*I *190:Y O *D sky130_fd_sc_hd__xnor2_1
*CAP
1 *263:B 0.00025739
2 *190:Y 0.00025739
3 *263:B alu_out[3] 2.652e-05
4 *263:B *191:A 0.000158371
5 *263:B *191:B 1.41291e-05
6 *263:B *123:17 0
7 *189:C *263:B 8.62625e-06
*RES
1 *190:Y *263:B 32.548 
*END

*D_NET *9 0.000942348
*CONN
*I *330:A I *D sky130_fd_sc_hd__buf_4
*I *192:C I *D sky130_fd_sc_hd__maj3_2
*I *191:X O *D sky130_fd_sc_hd__maj3_2
*CAP
1 *330:A 2.22733e-05
2 *192:C 0.00016456
3 *191:X 0.000250427
4 *9:14 0.000437261
5 *330:A alu_out[4] 5.04829e-06
6 *330:A *264:B 6.27782e-05
7 *9:14 *123:17 0
*RES
1 *191:X *9:14 18.5934 
2 *9:14 *192:C 17.2421 
3 *9:14 *330:A 14.4725 
*END

*D_NET *10 0.00103976
*CONN
*I *341:A I *D sky130_fd_sc_hd__buf_4
*I *194:C I *D sky130_fd_sc_hd__maj3_2
*I *192:X O *D sky130_fd_sc_hd__maj3_2
*CAP
1 *341:A 0.000122903
2 *194:C 0.000233695
3 *192:X 8.63851e-05
4 *10:10 0.000442983
5 *194:C alu_out[5] 2.72051e-05
6 *194:C *265:A 6.07172e-05
7 *194:C *12:10 9.44631e-06
8 *341:A *265:A 5.64241e-05
*RES
1 *192:X *10:10 20.0811 
2 *10:10 *194:C 14.9881 
3 *10:10 *341:A 12.625 
*END

*D_NET *11 0.000563195
*CONN
*I *265:B I *D sky130_fd_sc_hd__xnor2_1
*I *193:Y O *D sky130_fd_sc_hd__xnor2_1
*CAP
1 *265:B 0.00024969
2 *193:Y 0.00024969
3 *265:B alu_out[5] 7.12632e-06
4 *265:B *192:A 5.66878e-05
5 *265:B *157:15 0
*RES
1 *193:Y *265:B 32.1327 
*END

*D_NET *12 0.00103947
*CONN
*I *195:C I *D sky130_fd_sc_hd__maj3_2
*I *340:A I *D sky130_fd_sc_hd__buf_4
*I *194:X O *D sky130_fd_sc_hd__maj3_2
*CAP
1 *195:C 0
2 *340:A 0.000231992
3 *194:X 0.000147327
4 *12:10 0.000379319
5 *340:A alu_out[6] 7.09148e-05
6 *340:A alu_out[7] 7.86825e-06
7 *340:A *268:B 3.40268e-05
8 *340:A *13:10 3.9986e-05
9 *12:10 alu_out[5] 3.00174e-06
10 *12:10 *157:15 0.000115588
11 *194:C *12:10 9.44631e-06
*RES
1 *194:X *12:10 17.135 
2 *12:10 *340:A 20.184 
3 *12:10 *195:C 13.7491 
*END

*D_NET *13 0.00138458
*CONN
*I *268:A I *D sky130_fd_sc_hd__xnor2_1
*I *196:C I *D sky130_fd_sc_hd__maj3_2
*I *195:X O *D sky130_fd_sc_hd__maj3_2
*CAP
1 *268:A 0
2 *196:C 0.000132038
3 *195:X 0.000223688
4 *13:10 0.000355726
5 *196:C *196:A 0.000263038
6 *196:C *268:B 0.000186423
7 *196:C *126:11 0.000113188
8 *13:10 alu_out[6] 0
9 *13:10 *181:B 2.20702e-05
10 *13:10 *195:B 1.43983e-05
11 *13:10 *268:B 3.40268e-05
12 *340:A *13:10 3.9986e-05
*RES
1 *195:X *13:10 18.2442 
2 *13:10 *196:C 19.7687 
3 *13:10 *268:A 13.7491 
*END

*D_NET *14 0.00174713
*CONN
*I *269:A I *D sky130_fd_sc_hd__xnor2_1
*I *198:C I *D sky130_fd_sc_hd__maj3_2
*I *196:X O *D sky130_fd_sc_hd__maj3_2
*CAP
1 *269:A 0
2 *198:C 0.000148306
3 *196:X 0.000558474
4 *14:10 0.000706779
5 *198:C alu_out[9] 8.09155e-05
6 *198:C *197:B 0
7 *198:C *159:9 0
8 *14:10 alu_out[15] 9.00591e-06
9 *14:10 alu_out[9] 6.27139e-06
10 *14:10 *196:B 6.27782e-05
11 *14:10 *197:A 1.21985e-05
12 *14:10 *197:B 0
13 *14:10 *210:B 0
14 *14:10 *211:B 0
15 *14:10 *212:C 3.63041e-05
16 *14:10 *269:B 0.0001261
17 *14:10 *25:14 0
18 *14:10 *135:9 0
*RES
1 *196:X *14:10 25.4429 
2 *14:10 *198:C 17.7307 
3 *14:10 *269:A 13.7491 
*END

*D_NET *15 0.000777833
*CONN
*I *269:B I *D sky130_fd_sc_hd__xnor2_1
*I *197:Y O *D sky130_fd_sc_hd__xnor2_1
*CAP
1 *269:B 0.000189839
2 *197:Y 0.000189839
3 *269:B alu_out[9] 2.02035e-05
4 *269:B *197:A 4.32462e-05
5 *269:B *211:A 0.000208606
6 *14:10 *269:B 0.0001261
*RES
1 *197:Y *269:B 32.1327 
*END

*D_NET *16 0.00324956
*CONN
*I *271:A I *D sky130_fd_sc_hd__xnor2_1
*I *199:C I *D sky130_fd_sc_hd__maj3_2
*I *198:X O *D sky130_fd_sc_hd__maj3_2
*CAP
1 *271:A 2.63062e-06
2 *199:C 0.000551366
3 *198:X 0.000285278
4 *16:12 0.000839275
5 *199:C alu_out[13] 0
6 *199:C alu_out[9] 1.98711e-05
7 *199:C *180:A 0.000122083
8 *199:C *200:B 2.86654e-05
9 *199:C *203:C 0.000236861
10 *199:C *206:C 0.000110675
11 *199:C *270:B 0.000179271
12 *199:C *271:B 0.000301464
13 *199:C *337:A 0.000139684
14 *199:C *23:10 0
15 *199:C *98:9 0.00022117
16 *199:C *130:9 6.38976e-05
17 *271:A alu_out[9] 6.11447e-06
18 *16:12 alu_out[9] 3.9796e-05
19 *16:12 *198:B 2.85139e-05
20 *16:12 *271:B 4.51287e-05
21 *16:12 *159:9 2.78195e-05
*RES
1 *198:X *16:12 19.7393 
2 *16:12 *199:C 33.2294 
3 *16:12 *271:A 14.1278 
*END

*D_NET *17 0.000733221
*CONN
*I *339:A I *D sky130_fd_sc_hd__buf_4
*I *200:C I *D sky130_fd_sc_hd__maj3_2
*I *199:X O *D sky130_fd_sc_hd__maj3_2
*CAP
1 *339:A 2.91309e-05
2 *200:C 0.000144728
3 *199:X 0.000107908
4 *17:8 0.000281766
5 *200:C *272:B 0
6 *200:C *159:9 5.25197e-05
7 *200:C *160:9 3.20069e-06
8 *17:8 *160:9 0.000113968
*RES
1 *199:X *17:8 12.2151 
2 *17:8 *200:C 21.7421 
3 *17:8 *339:A 9.97254 
*END

*D_NET *18 0.00256483
*CONN
*I *338:A I *D sky130_fd_sc_hd__buf_4
*I *201:C I *D sky130_fd_sc_hd__maj3_2
*I *200:X O *D sky130_fd_sc_hd__maj3_2
*CAP
1 *338:A 0.000151667
2 *201:C 0.000302263
3 *200:X 0.000261552
4 *18:10 0.000715482
5 *201:C *206:C 1.71698e-05
6 *201:C *271:B 0.000165713
7 *201:C *273:B 0.000157107
8 *201:C *274:B 2.16355e-05
9 *201:C *336:A 0.000228593
10 *201:C *19:8 2.58757e-05
11 *201:C *159:9 0.000162131
12 *338:A *274:A 0.000117356
13 *18:10 alu_out[10] 7.58739e-05
14 *18:10 alu_out[11] 0
15 *18:10 *272:B 0.00010677
16 *18:10 *274:B 5.56367e-05
17 *18:10 *159:9 0
*RES
1 *200:X *18:10 25.8947 
2 *18:10 *201:C 28.3197 
3 *18:10 *338:A 13.3243 
*END

*D_NET *19 0.00153077
*CONN
*I *337:A I *D sky130_fd_sc_hd__buf_4
*I *203:C I *D sky130_fd_sc_hd__maj3_2
*I *201:X O *D sky130_fd_sc_hd__maj3_2
*CAP
1 *337:A 0.000119251
2 *203:C 0.000102723
3 *201:X 8.68693e-05
4 *19:8 0.000308843
5 *203:C *205:B 5.44561e-05
6 *203:C *130:9 0.000108106
7 *337:A *205:A 0.000205687
8 *337:A *205:B 4.62129e-05
9 *337:A *275:A 8.21325e-05
10 *337:A *99:11 6.14474e-06
11 *19:8 *273:B 7.92757e-06
12 *199:C *203:C 0.000236861
13 *199:C *337:A 0.000139684
14 *201:C *19:8 2.58757e-05
*RES
1 *201:X *19:8 15.0271 
2 *19:8 *203:C 18.0727 
3 *19:8 *337:A 18.7989 
*END

*D_NET *20 0.00108274
*CONN
*I *275:B I *D sky130_fd_sc_hd__xnor2_1
*I *202:Y O *D sky130_fd_sc_hd__xnor2_1
*CAP
1 *275:B 0.000241805
2 *202:Y 0.000241805
3 *275:B *203:A 0.000164829
4 *275:B *23:10 0.0003045
5 *275:B *102:9 6.61154e-05
6 *275:B *103:13 6.3684e-05
*RES
1 *202:Y *275:B 34.9002 
*END

*D_NET *21 0.00198588
*CONN
*I *336:A I *D sky130_fd_sc_hd__buf_4
*I *206:C I *D sky130_fd_sc_hd__maj3_2
*I *203:X O *D sky130_fd_sc_hd__maj3_2
*CAP
1 *336:A 0.000375983
2 *206:C 0.000245163
3 *203:X 0.000621146
4 *206:C *180:A 0.000115934
5 *206:C *180:B 0.000111708
6 *206:C *203:B 2.16355e-05
7 *206:C *271:B 0.000112159
8 *336:A *274:B 2.57102e-05
9 *336:A *159:9 0
10 *199:C *206:C 0.000110675
11 *201:C *206:C 1.71698e-05
12 *201:C *336:A 0.000228593
*RES
1 *203:X *206:C 33.4107 
2 *203:X *336:A 35.87 
*END

*D_NET *22 0.0017356
*CONN
*I *205:B I *D sky130_fd_sc_hd__xnor2_1
*I *204:Y O *D sky130_fd_sc_hd__xnor2_1
*CAP
1 *205:B 0.000417465
2 *204:Y 0.000417465
3 *205:B *180:A 7.46648e-06
4 *205:B *200:B 0.000171156
5 *205:B *204:A 0
6 *205:B *206:A 0
7 *205:B *206:B 0
8 *205:B *270:A 6.28168e-05
9 *205:B *23:10 0
10 *205:B *98:9 1.2693e-05
11 *205:B *99:11 0.000191861
12 *205:B *100:11 0
13 *205:B *130:9 0.000258215
14 *205:B *131:15 9.57955e-05
15 *205:B *133:9 0
16 *203:C *205:B 5.44561e-05
17 *337:A *205:B 4.62129e-05
*RES
1 *204:Y *205:B 41.3726 
*END

*D_NET *23 0.00297761
*CONN
*I *209:C I *D sky130_fd_sc_hd__maj3_2
*I *208:A I *D sky130_fd_sc_hd__xnor2_1
*I *206:X O *D sky130_fd_sc_hd__maj3_2
*CAP
1 *209:C 0.000225034
2 *208:A 0
3 *206:X 0.000630916
4 *23:10 0.00085595
5 *209:C alu_out[13] 5.47078e-05
6 *209:C *197:A 1.44463e-05
7 *209:C *207:B 0.000178466
8 *209:C *208:B 0.000124267
9 *209:C *103:13 7.96668e-05
10 *209:C *134:9 1.15929e-05
11 *23:10 alu_out[12] 2.21115e-05
12 *23:10 alu_out[13] 1.63175e-05
13 *23:10 *180:B 0.000113968
14 *23:10 *206:A 2.85274e-05
15 *23:10 *206:B 1.62073e-05
16 *23:10 *99:11 5.37494e-05
17 *23:10 *100:11 5.99635e-05
18 *23:10 *102:9 0
19 *23:10 *103:13 7.15502e-05
20 *23:10 *131:15 0.00011306
21 *23:10 *132:11 2.60879e-06
22 *199:C *23:10 0
23 *205:B *23:10 0
24 *275:B *23:10 0.0003045
*RES
1 *206:X *23:10 30.0135 
2 *23:10 *208:A 13.7491 
3 *23:10 *209:C 21.8832 
*END

*D_NET *24 0.000284103
*CONN
*I *208:B I *D sky130_fd_sc_hd__xnor2_1
*I *207:Y O *D sky130_fd_sc_hd__xnor2_1
*CAP
1 *208:B 5.32383e-05
2 *207:Y 5.32383e-05
3 *208:B alu_out[13] 5.33591e-05
4 *209:C *208:B 0.000124267
*RES
1 *207:Y *208:B 29.7455 
*END

*D_NET *25 0.00144253
*CONN
*I *335:A I *D sky130_fd_sc_hd__buf_4
*I *212:C I *D sky130_fd_sc_hd__maj3_2
*I *209:X O *D sky130_fd_sc_hd__maj3_2
*CAP
1 *335:A 3.79148e-05
2 *212:C 0.000145067
3 *209:X 0.000282065
4 *25:14 0.000465047
5 *335:A *197:B 6.27718e-05
6 *335:A *211:A 2.08274e-05
7 *25:14 alu_out[15] 1.66626e-05
8 *25:14 *197:A 0.000284658
9 *25:14 *197:B 5.99352e-05
10 *25:14 *211:A 7.92757e-06
11 *25:14 *211:B 2.33548e-05
12 *25:14 *103:13 0
13 *25:14 *134:9 0
14 *14:10 *212:C 3.63041e-05
15 *14:10 *25:14 0
*RES
1 *209:X *25:14 25.9566 
2 *25:14 *212:C 21.3269 
3 *25:14 *335:A 10.5271 
*END

*D_NET *26 0.00107207
*CONN
*I *211:B I *D sky130_fd_sc_hd__xnor2_1
*I *210:Y O *D sky130_fd_sc_hd__xnor2_1
*CAP
1 *211:B 0.000351936
2 *210:Y 0.000351936
3 *211:B alu_out[15] 7.44969e-06
4 *211:B *212:B 0.000258216
5 *211:B *103:13 7.44784e-05
6 *211:B *135:9 4.69495e-06
7 *14:10 *211:B 0
8 *25:14 *211:B 2.33548e-05
*RES
1 *210:Y *211:B 34.2118 
*END

*D_NET *27 0.000975431
*CONN
*I *334:A I *D sky130_fd_sc_hd__buf_4
*I *215:C I *D sky130_fd_sc_hd__maj3_2
*I *212:X O *D sky130_fd_sc_hd__maj3_2
*CAP
1 *334:A 0.000102576
2 *215:C 0.000435318
3 *212:X 0.000332742
4 *215:C *104:9 0.000104795
*RES
1 *212:X *215:C 25.8769 
2 *215:C *334:A 20.9096 
*END

*D_NET *28 0.000505855
*CONN
*I *214:B I *D sky130_fd_sc_hd__xnor2_1
*I *213:Y O *D sky130_fd_sc_hd__xnor2_1
*CAP
1 *214:B 0.000240268
2 *213:Y 0.000240268
3 *214:B *213:B 2.53191e-05
*RES
1 *213:Y *214:B 24.2372 
*END

*D_NET *29 0.00659093
*CONN
*I *218:C I *D sky130_fd_sc_hd__maj3_2
*I *333:A I *D sky130_fd_sc_hd__buf_4
*I *215:X O *D sky130_fd_sc_hd__maj3_2
*CAP
1 *218:C 7.52472e-05
2 *333:A 0.000132631
3 *215:X 0.0011489
4 *29:12 0.00213004
5 *29:10 0.00307106
6 *29:10 *213:B 3.30578e-05
*RES
1 *215:X *29:10 47.0725 
2 *29:10 *29:12 45.0917 
3 *29:12 *333:A 21.3269 
4 *29:12 *218:C 11.0817 
*END

*D_NET *30 0.000236873
*CONN
*I *217:B I *D sky130_fd_sc_hd__xnor2_1
*I *216:Y O *D sky130_fd_sc_hd__xnor2_1
*CAP
1 *217:B 9.30707e-05
2 *216:Y 9.30707e-05
3 *217:B *217:A 5.07314e-05
*RES
1 *216:Y *217:B 20.9096 
*END

*D_NET *31 0.00117478
*CONN
*I *221:C I *D sky130_fd_sc_hd__maj3_2
*I *332:A I *D sky130_fd_sc_hd__buf_4
*I *218:X O *D sky130_fd_sc_hd__maj3_2
*CAP
1 *221:C 0.0001716
2 *332:A 0
3 *218:X 0.000210779
4 *31:10 0.000382379
5 *221:C *220:B 0.000164829
6 *221:C *223:B 7.37475e-05
7 *221:C *331:A 6.70884e-05
8 *31:10 *217:A 0
9 *31:10 *223:A 8.98943e-05
10 *31:10 *223:B 1.12605e-05
11 *31:10 *331:A 3.20069e-06
12 *31:10 *105:9 0
*RES
1 *218:X *31:10 17.829 
2 *31:10 *332:A 13.7491 
3 *31:10 *221:C 19.0748 
*END

*D_NET *32 0.00131441
*CONN
*I *220:B I *D sky130_fd_sc_hd__xnor2_1
*I *219:Y O *D sky130_fd_sc_hd__xnor2_1
*CAP
1 *220:B 0.000358176
2 *219:Y 0.000358176
3 *220:B *219:B 0.000433229
4 *221:C *220:B 0.000164829
*RES
1 *219:Y *220:B 28.1195 
*END

*D_NET *33 0.00151735
*CONN
*I *224:C I *D sky130_fd_sc_hd__maj3_2
*I *331:A I *D sky130_fd_sc_hd__buf_4
*I *221:X O *D sky130_fd_sc_hd__maj3_2
*CAP
1 *224:C 0.000147895
2 *331:A 0.000261128
3 *221:X 0
4 *33:6 0.000409024
5 *224:C *222:A 7.69988e-06
6 *224:C *222:B 0.00016802
7 *224:C *223:B 0
8 *224:C *144:13 0.000247789
9 *331:A *217:A 0.000118166
10 *331:A *223:A 6.92705e-05
11 *331:A *223:B 0
12 *331:A *105:9 0
13 *331:A *138:11 1.80671e-05
14 *221:C *331:A 6.70884e-05
15 *31:10 *331:A 3.20069e-06
*RES
1 *221:X *33:6 13.7491 
2 *33:6 *331:A 20.8751 
3 *33:6 *224:C 19.3184 
*END

*D_NET *34 0.00133838
*CONN
*I *223:B I *D sky130_fd_sc_hd__xnor2_1
*I *222:Y O *D sky130_fd_sc_hd__xnor2_1
*CAP
1 *223:B 0.000502958
2 *222:Y 0.000502958
3 *223:B alu_out[18] 0
4 *223:B alu_out[19] 1.70638e-05
5 *223:B *217:A 0
6 *223:B *220:A 7.55617e-05
7 *223:B *222:A 5.04829e-06
8 *223:B *223:A 0.000145584
9 *223:B *144:13 4.20184e-06
10 *221:C *223:B 7.37475e-05
11 *224:C *223:B 0
12 *331:A *223:B 0
13 *31:10 *223:B 1.12605e-05
*RES
1 *222:Y *223:B 39.192 
*END

*D_NET *35 0.000936651
*CONN
*I *227:C I *D sky130_fd_sc_hd__maj3_2
*I *226:A I *D sky130_fd_sc_hd__xnor2_1
*I *224:X O *D sky130_fd_sc_hd__maj3_2
*CAP
1 *227:C 0.00013885
2 *226:A 0.000138256
3 *224:X 0
4 *35:4 0.000277106
5 *227:C alu_out[21] 8.46466e-05
6 *227:C *227:B 0.00015901
7 *227:C *144:13 0.000138783
*RES
1 *224:X *35:4 9.24915 
2 *35:4 *226:A 12.625 
3 *35:4 *227:C 22.7442 
*END

*D_NET *36 0.000685658
*CONN
*I *226:B I *D sky130_fd_sc_hd__xnor2_1
*I *225:Y O *D sky130_fd_sc_hd__xnor2_1
*CAP
1 *226:B 0.000312406
2 *225:Y 0.000312406
3 *226:B alu_out[20] 6.08467e-05
*RES
1 *225:Y *226:B 25.3464 
*END

*D_NET *37 0.00127792
*CONN
*I *229:A I *D sky130_fd_sc_hd__xnor2_1
*I *230:C I *D sky130_fd_sc_hd__maj3_2
*I *227:X O *D sky130_fd_sc_hd__maj3_2
*CAP
1 *229:A 0
2 *230:C 0.000400031
3 *227:X 9.01807e-05
4 *37:12 0.000490212
5 *230:C *229:B 6.08467e-05
6 *230:C *230:A 9.31608e-06
7 *230:C *230:B 1.09375e-05
8 *37:12 *107:9 6.31665e-05
9 *37:12 *144:13 0.000153225
*RES
1 *227:X *37:12 21.635 
2 *37:12 *230:C 27.457 
3 *37:12 *229:A 9.24915 
*END

*D_NET *38 0.00173465
*CONN
*I *229:B I *D sky130_fd_sc_hd__xnor2_1
*I *228:Y O *D sky130_fd_sc_hd__xnor2_1
*CAP
1 *229:B 0.000344607
2 *228:Y 0.000344607
3 *229:B *228:B 0.000114584
4 *229:B *233:A 0.00015607
5 *229:B *236:C 1.95082e-05
6 *229:B *107:9 0.000347956
7 *229:B *112:11 0.000346472
8 *230:C *229:B 6.08467e-05
*RES
1 *228:Y *229:B 39.2271 
*END

*D_NET *39 0.000903277
*CONN
*I *233:C I *D sky130_fd_sc_hd__maj3_2
*I *329:A I *D sky130_fd_sc_hd__buf_4
*I *230:X O *D sky130_fd_sc_hd__maj3_2
*CAP
1 *233:C 7.831e-05
2 *329:A 0.000137146
3 *230:X 8.66032e-05
4 *39:8 0.000302059
5 *233:C *228:B 6.03263e-05
6 *233:C *230:B 4.88722e-05
7 *233:C *233:B 2.49093e-05
8 *329:A *230:B 7.39195e-05
9 *329:A *233:B 7.70136e-05
10 *329:A *112:11 0
11 *39:8 *230:B 1.41181e-05
*RES
1 *230:X *39:8 15.0271 
2 *39:8 *329:A 17.5531 
3 *39:8 *233:C 15.9964 
*END

*D_NET *40 0.000680282
*CONN
*I *232:B I *D sky130_fd_sc_hd__xnor2_1
*I *231:Y O *D sky130_fd_sc_hd__xnor2_1
*CAP
1 *232:B 0.000309718
2 *231:Y 0.000309718
3 *232:B alu_out[22] 6.08467e-05
*RES
1 *231:Y *232:B 25.3464 
*END

*D_NET *41 0.00113435
*CONN
*I *328:A I *D sky130_fd_sc_hd__buf_4
*I *236:C I *D sky130_fd_sc_hd__maj3_2
*I *233:X O *D sky130_fd_sc_hd__maj3_2
*CAP
1 *328:A 7.25248e-05
2 *236:C 0.000406541
3 *233:X 0
4 *41:4 0.000479065
5 *236:C *228:B 2.41274e-06
6 *236:C *233:A 4.19317e-05
7 *328:A *233:A 0.000112367
8 *229:B *236:C 1.95082e-05
*RES
1 *233:X *41:4 9.24915 
2 *41:4 *236:C 24.9627 
3 *41:4 *328:A 11.5158 
*END

*D_NET *42 0.000209779
*CONN
*I *235:B I *D sky130_fd_sc_hd__xnor2_1
*I *234:Y O *D sky130_fd_sc_hd__xnor2_1
*CAP
1 *235:B 7.35038e-05
2 *234:Y 7.35038e-05
3 *235:B *144:13 6.27718e-05
*RES
1 *234:Y *235:B 20.355 
*END

*D_NET *43 0.000969612
*CONN
*I *239:C I *D sky130_fd_sc_hd__maj3_2
*I *238:A I *D sky130_fd_sc_hd__xnor2_1
*I *236:X O *D sky130_fd_sc_hd__maj3_2
*CAP
1 *239:C 0.000158441
2 *238:A 0.000151259
3 *236:X 0.000166552
4 *43:10 0.000476251
5 *239:C *238:B 0
6 *239:C *145:11 0
7 *43:10 *236:B 1.71094e-05
8 *43:10 *238:B 0
*RES
1 *236:X *43:10 17.135 
2 *43:10 *238:A 17.2456 
3 *43:10 *239:C 17.2421 
*END

*D_NET *44 0.000440021
*CONN
*I *238:B I *D sky130_fd_sc_hd__xnor2_1
*I *237:Y O *D sky130_fd_sc_hd__xnor2_1
*CAP
1 *238:B 0.000199929
2 *237:Y 0.000199929
3 *238:B alu_out[24] 1.66692e-05
4 *238:B *241:A 1.92926e-05
5 *238:B *145:11 4.20184e-06
6 *239:C *238:B 0
7 *43:10 *238:B 0
*RES
1 *237:Y *238:B 31.4388 
*END

*D_NET *45 0.000957844
*CONN
*I *241:A I *D sky130_fd_sc_hd__xnor2_1
*I *242:C I *D sky130_fd_sc_hd__maj3_2
*I *239:X O *D sky130_fd_sc_hd__maj3_2
*CAP
1 *241:A 0.000215661
2 *242:C 0.000113648
3 *239:X 8.54086e-05
4 *45:6 0.000414718
5 *241:A *239:A 0
6 *241:A *113:13 1.92172e-05
7 *242:C *241:B 0
8 *242:C *146:11 0
9 *45:6 *239:A 7.68538e-06
10 *45:6 *239:B 7.48633e-05
11 *45:6 *113:13 7.34948e-06
12 *238:B *241:A 1.92926e-05
*RES
1 *239:X *45:6 11.6364 
2 *45:6 *242:C 20.9116 
3 *45:6 *241:A 14.2888 
*END

*D_NET *46 0.000341286
*CONN
*I *241:B I *D sky130_fd_sc_hd__xnor2_1
*I *240:Y O *D sky130_fd_sc_hd__xnor2_1
*CAP
1 *241:B 0.000159578
2 *240:Y 0.000159578
3 *241:B alu_out[25] 2.21305e-05
4 *242:C *241:B 0
*RES
1 *240:Y *241:B 30.4689 
*END

*D_NET *47 0.000858698
*CONN
*I *245:C I *D sky130_fd_sc_hd__maj3_2
*I *244:A I *D sky130_fd_sc_hd__xnor2_1
*I *242:X O *D sky130_fd_sc_hd__maj3_2
*CAP
1 *245:C 0.000125627
2 *244:A 0.000137839
3 *242:X 9.78105e-05
4 *47:8 0.000361276
5 *244:A *244:B 5.31465e-05
6 *245:C *243:A 3.587e-06
7 *245:C *243:B 4.72708e-05
8 *245:C *245:B 3.05478e-05
9 *47:8 *243:A 1.59362e-06
10 *47:8 *146:11 0
*RES
1 *242:X *47:8 15.9964 
2 *47:8 *244:A 17.2456 
3 *47:8 *245:C 17.2421 
*END

*D_NET *48 0.000179733
*CONN
*I *244:B I *D sky130_fd_sc_hd__xnor2_1
*I *243:Y O *D sky130_fd_sc_hd__xnor2_1
*CAP
1 *244:B 6.32932e-05
2 *243:Y 6.32932e-05
3 *244:A *244:B 5.31465e-05
*RES
1 *243:Y *244:B 20.355 
*END

*D_NET *49 0.00127218
*CONN
*I *327:A I *D sky130_fd_sc_hd__buf_4
*I *248:C I *D sky130_fd_sc_hd__maj3_2
*I *245:X O *D sky130_fd_sc_hd__maj3_2
*CAP
1 *327:A 8.86901e-05
2 *248:C 0.0005474
3 *245:X 0
4 *49:4 0.000636091
*RES
1 *245:X *49:4 9.24915 
2 *49:4 *248:C 26.6265 
3 *49:4 *327:A 11.5158 
*END

*D_NET *50 0.000261852
*CONN
*I *247:B I *D sky130_fd_sc_hd__xnor2_1
*I *246:Y O *D sky130_fd_sc_hd__xnor2_1
*CAP
1 *247:B 0.000130926
2 *246:Y 0.000130926
*RES
1 *246:Y *247:B 21.4642 
*END

*D_NET *51 0.00130505
*CONN
*I *251:C I *D sky130_fd_sc_hd__maj3_2
*I *250:A I *D sky130_fd_sc_hd__xnor2_1
*I *248:X O *D sky130_fd_sc_hd__maj3_2
*CAP
1 *251:C 0.000164074
2 *250:A 0.000314923
3 *248:X 0.00015817
4 *51:10 0.000637167
5 *251:C *117:11 0
6 *251:C *149:11 0
7 *51:10 *248:B 3.07159e-05
*RES
1 *248:X *51:10 17.135 
2 *51:10 *250:A 21.1278 
3 *51:10 *251:C 17.2421 
*END

*D_NET *52 0.000376843
*CONN
*I *250:B I *D sky130_fd_sc_hd__xnor2_1
*I *249:Y O *D sky130_fd_sc_hd__xnor2_1
*CAP
1 *250:B 0.000183829
2 *249:Y 0.000183829
3 *250:B alu_out[27] 0
4 *250:B *253:A 9.18559e-06
5 *250:B *117:11 0
*RES
1 *249:Y *250:B 30.8842 
*END

*D_NET *53 0.00116751
*CONN
*I *253:A I *D sky130_fd_sc_hd__xnor2_1
*I *254:C I *D sky130_fd_sc_hd__maj3_2
*I *251:X O *D sky130_fd_sc_hd__maj3_2
*CAP
1 *253:A 0.000210933
2 *254:C 0.000114784
3 *251:X 8.81476e-05
4 *53:6 0.000413865
5 *253:A *251:A 0
6 *253:A *251:B 4.88955e-05
7 *254:C *253:B 0
8 *53:6 *251:B 0.0002817
9 *250:B *253:A 9.18559e-06
*RES
1 *251:X *53:6 12.191 
2 *53:6 *254:C 20.9116 
3 *53:6 *253:A 14.2888 
*END

*D_NET *54 0.000292819
*CONN
*I *253:B I *D sky130_fd_sc_hd__xnor2_1
*I *252:Y O *D sky130_fd_sc_hd__xnor2_1
*CAP
1 *253:B 8.21748e-05
2 *252:Y 8.21748e-05
3 *253:B alu_out[27] 0.000124267
4 *253:B *118:11 4.20184e-06
5 *254:C *253:B 0
*RES
1 *252:Y *253:B 29.7455 
*END

*D_NET *55 0.00121534
*CONN
*I *342:A I *D sky130_fd_sc_hd__buf_4
*I *257:C I *D sky130_fd_sc_hd__maj3_2
*I *254:X O *D sky130_fd_sc_hd__maj3_2
*CAP
1 *342:A 0.000274156
2 *257:C 0
3 *254:X 0.00018709
4 *55:10 0.000461246
5 *342:A alu_out[27] 0
6 *342:A alu_out[31] 2.34182e-05
7 *342:A *256:A 6.50586e-05
8 *342:A *256:B 0
9 *342:A *259:A 0
10 *342:A *326:A 2.65667e-05
11 *342:A *152:11 9.58043e-06
12 *55:10 alu_out[27] 0
13 *55:10 *254:A 0.000114271
14 *55:10 *120:11 2.40237e-05
15 *55:10 *152:11 2.99273e-05
*RES
1 *254:X *55:10 17.6896 
2 *55:10 *257:C 13.7491 
3 *55:10 *342:A 20.8723 
*END

*D_NET *56 0.000626851
*CONN
*I *256:B I *D sky130_fd_sc_hd__xnor2_1
*I *255:Y O *D sky130_fd_sc_hd__xnor2_1
*CAP
1 *256:B 0.000203918
2 *255:Y 0.000203918
3 *256:B *258:A 4.3116e-06
4 *256:B *258:B 0.000174205
5 *256:B *259:A 4.04982e-05
6 *342:A *256:B 0
*RES
1 *255:Y *256:B 33.4828 
*END

*D_NET *57 0.000765662
*CONN
*I *259:A I *D sky130_fd_sc_hd__xnor2_2
*I *257:X O *D sky130_fd_sc_hd__maj3_2
*CAP
1 *259:A 0.000326588
2 *257:X 0.000326588
3 *259:A *255:B 7.19887e-05
4 *256:B *259:A 4.04982e-05
5 *342:A *259:A 0
*RES
1 *257:X *259:A 33.6572 
*END

*D_NET *58 0.000395788
*CONN
*I *259:B I *D sky130_fd_sc_hd__xnor2_2
*I *258:Y O *D sky130_fd_sc_hd__xnor2_1
*CAP
1 *259:B 0.00011658
2 *258:Y 0.00011658
3 *259:B *258:A 0.000116502
4 *259:B *258:B 4.61271e-05
*RES
1 *258:Y *259:B 22.0188 
*END

*D_NET *59 0.000537151
*CONN
*I *268:B I *D sky130_fd_sc_hd__xnor2_1
*I *267:Y O *D sky130_fd_sc_hd__xnor2_1
*CAP
1 *268:B 0.000141337
2 *267:Y 0.000141337
3 *196:C *268:B 0.000186423
4 *340:A *268:B 3.40268e-05
5 *13:10 *268:B 3.40268e-05
*RES
1 *267:Y *268:B 31.4388 
*END

*D_NET *60 0.00238232
*CONN
*I *271:B I *D sky130_fd_sc_hd__xnor2_1
*I *270:Y O *D sky130_fd_sc_hd__xnor2_1
*CAP
1 *271:B 0.000656012
2 *270:Y 0.000656012
3 *271:B alu_out[9] 3.64169e-05
4 *271:B *200:A 9.19886e-06
5 *271:B *270:B 5.92192e-05
6 *271:B *159:9 0.000340992
7 *199:C *271:B 0.000301464
8 *201:C *271:B 0.000165713
9 *206:C *271:B 0.000112159
10 *16:12 *271:B 4.51287e-05
*RES
1 *270:Y *271:B 48.0811 
*END

*D_NET *61 0.000563589
*CONN
*I *274:B I *D sky130_fd_sc_hd__xnor2_1
*I *273:Y O *D sky130_fd_sc_hd__xnor2_1
*CAP
1 *274:B 0.000219736
2 *273:Y 0.000219736
3 *274:B alu_out[10] 2.11347e-05
4 *274:B *159:9 0
5 *201:C *274:B 2.16355e-05
6 *336:A *274:B 2.57102e-05
7 *18:10 *274:B 5.56367e-05
*RES
1 *273:Y *274:B 32.1622 
*END

*D_NET *62 0.000251168
*CONN
*I *272:A I *D sky130_fd_sc_hd__xnor2_1
*I *180:Y O *D sky130_fd_sc_hd__xnor2_1
*CAP
1 *272:A 0.000125584
2 *180:Y 0.000125584
*RES
1 *180:Y *272:A 21.3195 
*END

*D_NET *63 0.000228236
*CONN
*I *266:A I *D sky130_fd_sc_hd__xnor2_1
*I *181:Y O *D sky130_fd_sc_hd__xnor2_1
*CAP
1 *266:A 0.000114118
2 *181:Y 0.000114118
*RES
1 *181:Y *266:A 30.1608 
*END

*D_NET *64 0.000328331
*CONN
*I *264:A I *D sky130_fd_sc_hd__xnor2_1
*I *182:Y O *D sky130_fd_sc_hd__xnor2_1
*CAP
1 *264:A 0.000122935
2 *182:Y 0.000122935
3 *264:A alu_out[4] 1.04731e-05
4 *264:A *123:17 7.19887e-05
*RES
1 *182:Y *264:A 21.8741 
*END

*D_NET *65 0.000749305
*CONN
*P alu_out[0] O
*I *260:X O *D sky130_fd_sc_hd__xor2_1
*CAP
1 alu_out[0] 0.000185942
2 *260:X 0.000185942
3 alu_out[0] alu_out[1] 0.000191705
4 alu_out[0] *157:15 0.000162903
5 *188:A1 alu_out[0] 2.28129e-05
*RES
1 *260:X alu_out[0] 19.0022 
*END

*D_NET *66 0.00300812
*CONN
*P alu_out[10] O
*I *272:Y O *D sky130_fd_sc_hd__xnor2_1
*CAP
1 alu_out[10] 0.00128614
2 *272:Y 0.00128614
3 alu_out[10] alu_out[11] 3.34802e-05
4 alu_out[10] alu_out[12] 3.90136e-05
5 alu_out[10] alu_out[8] 4.10489e-05
6 alu_out[10] alu_out[9] 0
7 alu_out[10] *127:9 0.000225297
8 alu_out[10] *159:9 0
9 *274:B alu_out[10] 2.11347e-05
10 *18:10 alu_out[10] 7.58739e-05
*RES
1 *272:Y alu_out[10] 33.7435 
*END

*D_NET *67 0.00214258
*CONN
*P alu_out[11] O
*I *274:Y O *D sky130_fd_sc_hd__xnor2_1
*CAP
1 alu_out[11] 0.00087585
2 *274:Y 0.00087585
3 alu_out[11] *101:7 0.000144835
4 alu_out[11] *128:7 0
5 alu_out[11] *130:9 0
6 alu_out[11] *131:15 0.000212563
7 alu_out[10] alu_out[11] 3.34802e-05
8 *18:10 alu_out[11] 0
*RES
1 *274:Y alu_out[11] 21.439 
*END

*D_NET *68 0.000814895
*CONN
*P alu_out[12] O
*I *275:Y O *D sky130_fd_sc_hd__xnor2_1
*CAP
1 alu_out[12] 0.000239032
2 *275:Y 0.000239032
3 alu_out[12] alu_out[13] 5.8802e-05
4 alu_out[12] alu_out[8] 3.71946e-05
5 alu_out[12] *99:11 0.000179709
6 alu_out[10] alu_out[12] 3.90136e-05
7 *23:10 alu_out[12] 2.21115e-05
*RES
1 *275:Y alu_out[12] 19.0022 
*END

*D_NET *69 0.00230247
*CONN
*P alu_out[13] O
*I *205:Y O *D sky130_fd_sc_hd__xnor2_1
*CAP
1 alu_out[13] 0.000635866
2 *205:Y 0.000635866
3 alu_out[13] alu_out[9] 0.000323034
4 alu_out[13] *197:A 7.43222e-05
5 alu_out[13] *205:A 0.000208621
6 alu_out[13] *275:A 1.02497e-05
7 alu_out[13] *127:9 0.000231325
8 alu_out[12] alu_out[13] 5.8802e-05
9 *199:C alu_out[13] 0
10 *208:B alu_out[13] 5.33591e-05
11 *209:C alu_out[13] 5.47078e-05
12 *23:10 alu_out[13] 1.63175e-05
*RES
1 *205:Y alu_out[13] 29.2191 
*END

*D_NET *70 0.00149449
*CONN
*P alu_out[14] O
*I *208:Y O *D sky130_fd_sc_hd__xnor2_1
*CAP
1 alu_out[14] 0.000557079
2 *208:Y 0.000557079
3 alu_out[14] *102:9 0.000300608
4 alu_out[14] *103:13 3.71946e-05
5 alu_out[14] *130:9 4.25268e-05
*RES
1 *208:Y alu_out[14] 27.7795 
*END

*D_NET *71 0.00081466
*CONN
*P alu_out[15] O
*I *211:Y O *D sky130_fd_sc_hd__xnor2_1
*CAP
1 alu_out[15] 0.000200944
2 *211:Y 0.000200944
3 alu_out[15] alu_out[9] 4.7116e-05
4 alu_out[15] *104:9 3.97063e-06
5 alu_out[15] *134:9 0.000119019
6 alu_out[15] *135:9 0.000209549
7 *211:B alu_out[15] 7.44969e-06
8 *14:10 alu_out[15] 9.00591e-06
9 *25:14 alu_out[15] 1.66626e-05
*RES
1 *211:Y alu_out[15] 18.7399 
*END

*D_NET *72 0.00360095
*CONN
*P alu_out[16] O
*I *214:Y O *D sky130_fd_sc_hd__xnor2_1
*CAP
1 alu_out[16] 0.00134831
2 *214:Y 0.000452161
3 *72:8 0.00180047
*RES
1 *214:Y *72:8 23.3462 
2 *72:8 alu_out[16] 33.9285 
*END

*D_NET *73 0.000534109
*CONN
*P alu_out[17] O
*I *217:Y O *D sky130_fd_sc_hd__xnor2_1
*CAP
1 alu_out[17] 0.000202294
2 *217:Y 0.000202294
3 alu_out[17] alu_out[19] 0.000112942
4 alu_out[17] *217:A 0
5 alu_out[17] *137:9 1.65787e-05
*RES
1 *217:Y alu_out[17] 19.2644 
*END

*D_NET *74 0.00261451
*CONN
*P alu_out[18] O
*I *220:Y O *D sky130_fd_sc_hd__xnor2_1
*CAP
1 alu_out[18] 0.00117993
2 *220:Y 0.00117993
3 alu_out[18] alu_out[20] 4.35492e-05
4 alu_out[18] alu_out[21] 0
5 alu_out[18] alu_out[22] 0.000132561
6 alu_out[18] alu_out[23] 4.19663e-05
7 alu_out[18] alu_out[24] 3.65707e-05
8 alu_out[18] *231:A 0
9 alu_out[18] *232:A 0
10 alu_out[18] *235:A 0
11 alu_out[18] *109:11 0
12 alu_out[18] *111:9 0
13 alu_out[18] *141:11 0
14 alu_out[18] *143:11 0
15 alu_out[18] *144:13 0
16 *223:B alu_out[18] 0
*RES
1 *220:Y alu_out[18] 41.7208 
*END

*D_NET *75 0.000408555
*CONN
*P alu_out[19] O
*I *223:Y O *D sky130_fd_sc_hd__xnor2_1
*CAP
1 alu_out[19] 8.02123e-05
2 *223:Y 8.02123e-05
3 alu_out[19] *217:A 0
4 alu_out[19] *137:9 0.000118125
5 alu_out[17] alu_out[19] 0.000112942
6 *223:B alu_out[19] 1.70638e-05
*RES
1 *223:Y alu_out[19] 18.6962 
*END

*D_NET *76 0.00145146
*CONN
*P alu_out[1] O
*I *261:Y O *D sky130_fd_sc_hd__xnor2_1
*CAP
1 alu_out[1] 0.000556594
2 *261:Y 0.000556594
3 alu_out[1] *185:A 7.01935e-06
4 alu_out[1] *97:11 8.2738e-06
5 alu_out[1] *122:13 8.11343e-05
6 alu_out[1] *123:17 0
7 alu_out[1] *157:15 0
8 alu_out[0] alu_out[1] 0.000191705
9 *188:A1 alu_out[1] 1.03594e-05
10 *261:A alu_out[1] 2.49496e-05
11 *6:12 alu_out[1] 1.48325e-05
*RES
1 *261:Y alu_out[1] 22.3128 
*END

*D_NET *77 0.000269045
*CONN
*P alu_out[20] O
*I *226:Y O *D sky130_fd_sc_hd__xnor2_1
*CAP
1 alu_out[20] 6.30957e-05
2 *226:Y 6.30957e-05
3 alu_out[20] *112:11 1.93507e-05
4 alu_out[20] *139:9 1.91072e-05
5 alu_out[18] alu_out[20] 4.35492e-05
6 *226:B alu_out[20] 6.08467e-05
*RES
1 *226:Y alu_out[20] 18.6984 
*END

*D_NET *78 0.00115595
*CONN
*P alu_out[21] O
*I *229:Y O *D sky130_fd_sc_hd__xnor2_1
*CAP
1 alu_out[21] 0.000286904
2 *229:Y 0.000286904
3 alu_out[21] alu_out[22] 1.77249e-05
4 alu_out[21] *109:11 0.00017376
5 alu_out[21] *139:9 0.000198486
6 alu_out[21] *141:11 4.26243e-05
7 alu_out[21] *144:13 6.49002e-05
8 alu_out[18] alu_out[21] 0
9 *227:C alu_out[21] 8.46466e-05
*RES
1 *229:Y alu_out[21] 21.9089 
*END

*D_NET *79 0.00046035
*CONN
*P alu_out[22] O
*I *232:Y O *D sky130_fd_sc_hd__xnor2_1
*CAP
1 alu_out[22] 0.00011692
2 *232:Y 0.00011692
3 alu_out[22] *141:11 1.53776e-05
4 alu_out[18] alu_out[22] 0.000132561
5 alu_out[21] alu_out[22] 1.77249e-05
6 *232:B alu_out[22] 6.08467e-05
*RES
1 *232:Y alu_out[22] 20.3594 
*END

*D_NET *80 0.00034299
*CONN
*P alu_out[23] O
*I *235:Y O *D sky130_fd_sc_hd__xnor2_1
*CAP
1 alu_out[23] 8.75824e-05
2 *235:Y 8.75824e-05
3 alu_out[23] alu_out[24] 2.66428e-05
4 alu_out[23] *107:9 9.92163e-05
5 alu_out[18] alu_out[23] 4.19663e-05
*RES
1 *235:Y alu_out[23] 17.8657 
*END

*D_NET *81 0.000747408
*CONN
*P alu_out[24] O
*I *238:Y O *D sky130_fd_sc_hd__xnor2_1
*CAP
1 alu_out[24] 0.00019764
2 *238:Y 0.00019764
3 alu_out[24] *145:11 0.000272245
4 alu_out[18] alu_out[24] 3.65707e-05
5 alu_out[23] alu_out[24] 2.66428e-05
6 *238:B alu_out[24] 1.66692e-05
*RES
1 *238:Y alu_out[24] 19.1551 
*END

*D_NET *82 0.000473129
*CONN
*P alu_out[25] O
*I *241:Y O *D sky130_fd_sc_hd__xnor2_1
*CAP
1 alu_out[25] 0.000108851
2 *241:Y 0.000108851
3 alu_out[25] *113:13 0.000123966
4 alu_out[25] *114:11 0.00010933
5 *241:B alu_out[25] 2.21305e-05
*RES
1 *241:Y alu_out[25] 19.1114 
*END

*D_NET *83 0.000399426
*CONN
*P alu_out[26] O
*I *244:Y O *D sky130_fd_sc_hd__xnor2_1
*CAP
1 alu_out[26] 0.0001164
2 *244:Y 0.0001164
3 alu_out[26] *146:11 8.2568e-05
4 alu_out[26] *147:7 8.40581e-05
*RES
1 *244:Y alu_out[26] 19.035 
*END

*D_NET *84 0.00204939
*CONN
*P alu_out[27] O
*I *247:Y O *D sky130_fd_sc_hd__xnor2_1
*CAP
1 alu_out[27] 0.000828802
2 *247:Y 0.000828802
3 alu_out[27] alu_out[28] 4.87595e-05
4 alu_out[27] alu_out[29] 1.1573e-05
5 alu_out[27] alu_out[30] 0.000122028
6 alu_out[27] alu_out[31] 2.46326e-05
7 alu_out[27] *326:A 5.14923e-05
8 alu_out[27] *118:11 0
9 alu_out[27] *149:11 0
10 alu_out[27] *150:11 9.03858e-06
11 *250:B alu_out[27] 0
12 *253:B alu_out[27] 0.000124267
13 *342:A alu_out[27] 0
14 *55:10 alu_out[27] 0
*RES
1 *247:Y alu_out[27] 35.7215 
*END

*D_NET *85 0.000340814
*CONN
*P alu_out[28] O
*I *250:Y O *D sky130_fd_sc_hd__xnor2_1
*CAP
1 alu_out[28] 5.37166e-05
2 *250:Y 5.37166e-05
3 alu_out[28] *117:11 8.63418e-05
4 alu_out[28] *148:11 9.82797e-05
5 alu_out[27] alu_out[28] 4.87595e-05
*RES
1 *250:Y alu_out[28] 18.2045 
*END

*D_NET *86 0.000221228
*CONN
*P alu_out[29] O
*I *253:Y O *D sky130_fd_sc_hd__xnor2_1
*CAP
1 alu_out[29] 3.79689e-05
2 *253:Y 3.79689e-05
3 alu_out[29] *118:11 6.67511e-05
4 alu_out[29] *149:11 6.69663e-05
5 alu_out[27] alu_out[29] 1.1573e-05
*RES
1 *253:Y alu_out[29] 17.7127 
*END

*D_NET *87 0.00140975
*CONN
*P alu_out[2] O
*I *262:Y O *D sky130_fd_sc_hd__xnor2_1
*CAP
1 alu_out[2] 0.000619373
2 *262:Y 0.000619373
3 alu_out[2] *183:B 2.16355e-05
4 alu_out[2] *97:11 4.25268e-05
5 alu_out[2] *122:13 5.38612e-06
6 alu_out[2] *123:17 4.69062e-05
7 *262:A alu_out[2] 5.45523e-05
*RES
1 *262:Y alu_out[2] 26.1241 
*END

*D_NET *163 0.000292829
*CONN
*P alu_out[30] O
*I *326:X O *D sky130_fd_sc_hd__buf_4
*CAP
1 alu_out[30] 4.41166e-05
2 *326:X 4.41166e-05
3 alu_out[27] alu_out[30] 0.000122028
4 alu_out[31] alu_out[30] 8.2568e-05
*RES
1 *326:X alu_out[30] 17.7892 
*END

*D_NET *89 0.000602811
*CONN
*P alu_out[31] O
*I *259:Y O *D sky130_fd_sc_hd__xnor2_2
*CAP
1 alu_out[31] 0.000147826
2 *259:Y 0.000147826
3 alu_out[31] alu_out[30] 8.2568e-05
4 alu_out[31] *152:11 0.000176541
5 alu_out[27] alu_out[31] 2.46326e-05
6 *342:A alu_out[31] 2.34182e-05
*RES
1 *259:Y alu_out[31] 18.9257 
*END

*D_NET *90 0.00192358
*CONN
*P alu_out[3] O
*I *263:Y O *D sky130_fd_sc_hd__xnor2_1
*CAP
1 alu_out[3] 0.000686674
2 *263:Y 0.000686674
3 alu_out[3] *123:17 3.39005e-05
4 alu_out[3] *124:9 0.00012963
5 alu_out[3] *151:9 0.000175858
6 *191:C alu_out[3] 0.000116986
7 *263:A alu_out[3] 6.73351e-05
8 *263:B alu_out[3] 2.652e-05
*RES
1 *263:Y alu_out[3] 25.7742 
*END

*D_NET *91 0.00161906
*CONN
*P alu_out[4] O
*I *264:Y O *D sky130_fd_sc_hd__xnor2_1
*CAP
1 alu_out[4] 0.000635308
2 *264:Y 0.000635308
3 alu_out[4] *182:A 4.24488e-05
4 alu_out[4] *182:B 3.38623e-05
5 alu_out[4] *264:B 4.01691e-05
6 alu_out[4] *123:17 0.000106605
7 alu_out[4] *154:13 5.94378e-05
8 alu_out[4] *155:9 5.0395e-05
9 *264:A alu_out[4] 1.04731e-05
10 *330:A alu_out[4] 5.04829e-06
*RES
1 *264:Y alu_out[4] 27.7851 
*END

*D_NET *92 0.0016206
*CONN
*P alu_out[5] O
*I *265:Y O *D sky130_fd_sc_hd__xnor2_1
*CAP
1 alu_out[5] 0.000553665
2 *265:Y 0.000553665
3 alu_out[5] alu_out[7] 0
4 alu_out[5] *265:A 0.000213449
5 alu_out[5] *155:9 8.96241e-05
6 alu_out[5] *156:9 0.000148295
7 alu_out[5] *157:15 2.45675e-05
8 *194:C alu_out[5] 2.72051e-05
9 *265:B alu_out[5] 7.12632e-06
10 *12:10 alu_out[5] 3.00174e-06
*RES
1 *265:Y alu_out[5] 23.6214 
*END

*D_NET *93 0.00209659
*CONN
*P alu_out[6] O
*I *266:Y O *D sky130_fd_sc_hd__xnor2_1
*CAP
1 alu_out[6] 0.000916888
2 *266:Y 0.000916888
3 alu_out[6] alu_out[7] 4.69062e-05
4 alu_out[6] *266:B 0.000103943
5 alu_out[6] *125:11 4.10489e-05
6 *340:A alu_out[6] 7.09148e-05
7 *13:10 alu_out[6] 0
*RES
1 *266:Y alu_out[6] 31.3914 
*END

*D_NET *94 0.00073534
*CONN
*P alu_out[7] O
*I *268:Y O *D sky130_fd_sc_hd__xnor2_1
*CAP
1 alu_out[7] 0.00025549
2 *268:Y 0.00025549
3 alu_out[7] *125:11 3.45837e-05
4 alu_out[7] *126:11 0.000135001
5 alu_out[7] *156:9 0
6 alu_out[5] alu_out[7] 0
7 alu_out[6] alu_out[7] 4.69062e-05
8 *340:A alu_out[7] 7.86825e-06
*RES
1 *268:Y alu_out[7] 18.3246 
*END

*D_NET *95 0.00209601
*CONN
*P alu_out[8] O
*I *269:Y O *D sky130_fd_sc_hd__xnor2_1
*CAP
1 alu_out[8] 0.000822203
2 *269:Y 0.000822203
3 alu_out[8] *209:A 0.000160839
4 alu_out[8] *209:B 2.16355e-05
5 alu_out[8] *102:9 0.000190886
6 alu_out[10] alu_out[8] 4.10489e-05
7 alu_out[12] alu_out[8] 3.71946e-05
*RES
1 *269:Y alu_out[8] 31.6617 
*END

*D_NET *96 0.00227909
*CONN
*P alu_out[9] O
*I *271:Y O *D sky130_fd_sc_hd__xnor2_1
*CAP
1 alu_out[9] 0.000677721
2 *271:Y 0.000677721
3 alu_out[9] *197:A 0.000179914
4 alu_out[9] *127:9 2.72849e-05
5 alu_out[9] *134:9 0.000136705
6 alu_out[9] *159:9 0
7 alu_out[10] alu_out[9] 0
8 alu_out[13] alu_out[9] 0.000323034
9 alu_out[15] alu_out[9] 4.7116e-05
10 *198:C alu_out[9] 8.09155e-05
11 *199:C alu_out[9] 1.98711e-05
12 *269:B alu_out[9] 2.02035e-05
13 *271:A alu_out[9] 6.11447e-06
14 *271:B alu_out[9] 3.64169e-05
15 *14:10 alu_out[9] 6.27139e-06
16 *16:12 alu_out[9] 3.9796e-05
*RES
1 *271:Y alu_out[9] 29.7873 
*END

*D_NET *88 0.000889039
*CONN
*I *326:A I *D sky130_fd_sc_hd__buf_4
*I *256:Y O *D sky130_fd_sc_hd__xnor2_1
*CAP
1 *326:A 0.000378303
2 *256:Y 0.000378303
3 *326:A *256:A 5.4373e-05
4 alu_out[27] *326:A 5.14923e-05
5 *342:A *326:A 2.65667e-05
*RES
1 *256:Y *326:A 34.3512 
*END

*D_NET *179 0.00055829
*CONN
*I *256:A I *D sky130_fd_sc_hd__xnor2_1
*I *342:X O *D sky130_fd_sc_hd__buf_4
*CAP
1 *256:A 0.000219429
2 *342:X 0.000219429
3 *326:A *256:A 5.4373e-05
4 *342:A *256:A 6.50586e-05
*RES
1 *342:X *256:A 24.406 
*END

*D_NET *164 0.000331574
*CONN
*I *247:A I *D sky130_fd_sc_hd__xnor2_1
*I *327:X O *D sky130_fd_sc_hd__buf_4
*CAP
1 *247:A 0.000165787
2 *327:X 0.000165787
3 *116:11 *247:A 0
*RES
1 *327:X *247:A 30.8842 
*END

*D_NET *165 0.000257543
*CONN
*I *235:A I *D sky130_fd_sc_hd__xnor2_1
*I *328:X O *D sky130_fd_sc_hd__buf_4
*CAP
1 *235:A 9.73873e-05
2 *328:X 9.73873e-05
3 alu_out[18] *235:A 0
4 *144:13 *235:A 6.27679e-05
*RES
1 *328:X *235:A 30.1608 
*END

*D_NET *166 0.000788549
*CONN
*I *232:A I *D sky130_fd_sc_hd__xnor2_1
*I *329:X O *D sky130_fd_sc_hd__buf_4
*CAP
1 *232:A 0.000257277
2 *329:X 0.000257277
3 alu_out[18] *232:A 0
4 *233:B *232:A 0.000139764
5 *109:11 *232:A 6.34651e-06
6 *143:11 *232:A 0.000127885
*RES
1 *329:X *232:A 34.2118 
*END

*D_NET *168 0.000655838
*CONN
*I *223:A I *D sky130_fd_sc_hd__xnor2_1
*I *331:X O *D sky130_fd_sc_hd__buf_4
*CAP
1 *223:A 0.000175545
2 *331:X 0.000175545
3 *223:A *217:A 0
4 *223:B *223:A 0.000145584
5 *331:A *223:A 6.92705e-05
6 *31:10 *223:A 8.98943e-05
*RES
1 *331:X *223:A 32.548 
*END

*D_NET *169 0.000437478
*CONN
*I *220:A I *D sky130_fd_sc_hd__xnor2_1
*I *332:X O *D sky130_fd_sc_hd__buf_4
*CAP
1 *220:A 0.000180958
2 *332:X 0.000180958
3 *223:B *220:A 7.55617e-05
*RES
1 *332:X *220:A 31.7147 
*END

*D_NET *170 0.00117048
*CONN
*I *217:A I *D sky130_fd_sc_hd__xnor2_1
*I *333:X O *D sky130_fd_sc_hd__buf_4
*CAP
1 *217:A 0.000422304
2 *333:X 0.000422304
3 alu_out[17] *217:A 0
4 alu_out[19] *217:A 0
5 *216:A *217:A 4.3116e-06
6 *216:B *217:A 9.34869e-05
7 *217:B *217:A 5.07314e-05
8 *223:A *217:A 0
9 *223:B *217:A 0
10 *331:A *217:A 0.000118166
11 *31:10 *217:A 0
12 *105:9 *217:A 1.01315e-05
13 *137:9 *217:A 4.90442e-05
*RES
1 *333:X *217:A 38.6725 
*END

*D_NET *171 0.000350282
*CONN
*I *214:A I *D sky130_fd_sc_hd__xnor2_1
*I *334:X O *D sky130_fd_sc_hd__buf_4
*CAP
1 *214:A 0.000175141
2 *334:X 0.000175141
*RES
1 *334:X *214:A 31.4388 
*END

*D_NET *172 0.00121164
*CONN
*I *211:A I *D sky130_fd_sc_hd__xnor2_1
*I *335:X O *D sky130_fd_sc_hd__buf_4
*CAP
1 *211:A 0.000337076
2 *335:X 0.000337076
3 *197:A *211:A 4.19199e-05
4 *197:B *211:A 0.00025821
5 *269:B *211:A 0.000208606
6 *335:A *211:A 2.08274e-05
7 *25:14 *211:A 7.92757e-06
*RES
1 *335:X *211:A 27.9989 
*END

*D_NET *173 0.00107873
*CONN
*I *205:A I *D sky130_fd_sc_hd__xnor2_1
*I *336:X O *D sky130_fd_sc_hd__buf_4
*CAP
1 *205:A 0.00031521
2 *336:X 0.00031521
3 *205:A *275:A 3.40042e-05
4 alu_out[13] *205:A 0.000208621
5 *337:A *205:A 0.000205687
*RES
1 *336:X *205:A 27.0103 
*END

*D_NET *174 0.00101356
*CONN
*I *275:A I *D sky130_fd_sc_hd__xnor2_1
*I *337:X O *D sky130_fd_sc_hd__buf_4
*CAP
1 *275:A 0.000443587
2 *337:X 0.000443587
3 alu_out[13] *275:A 1.02497e-05
4 *205:A *275:A 3.40042e-05
5 *337:A *275:A 8.21325e-05
*RES
1 *337:X *275:A 27.9989 
*END

*D_NET *175 0.000444066
*CONN
*I *274:A I *D sky130_fd_sc_hd__xnor2_1
*I *338:X O *D sky130_fd_sc_hd__buf_4
*CAP
1 *274:A 0.000163355
2 *338:X 0.000163355
3 *338:A *274:A 0.000117356
*RES
1 *338:X *274:A 23.128 
*END

*D_NET *176 0.00062572
*CONN
*I *272:B I *D sky130_fd_sc_hd__xnor2_1
*I *339:X O *D sky130_fd_sc_hd__buf_4
*CAP
1 *272:B 0.000259475
2 *339:X 0.000259475
3 *200:C *272:B 0
4 *18:10 *272:B 0.00010677
5 *159:9 *272:B 0
*RES
1 *339:X *272:B 34.3133 
*END

*D_NET *177 0.000219833
*CONN
*I *266:B I *D sky130_fd_sc_hd__xnor2_1
*I *340:X O *D sky130_fd_sc_hd__buf_4
*CAP
1 *266:B 5.79449e-05
2 *340:X 5.79449e-05
3 alu_out[6] *266:B 0.000103943
*RES
1 *340:X *266:B 20.8855 
*END

*D_NET *178 0.000753758
*CONN
*I *265:A I *D sky130_fd_sc_hd__xnor2_1
*I *341:X O *D sky130_fd_sc_hd__buf_4
*CAP
1 *265:A 0.000211584
2 *341:X 0.000211584
3 alu_out[5] *265:A 0.000213449
4 *194:C *265:A 6.07172e-05
5 *341:A *265:A 5.64241e-05
*RES
1 *341:X *265:A 25.3464 
*END

*D_NET *167 0.000354932
*CONN
*I *264:B I *D sky130_fd_sc_hd__xnor2_1
*I *330:X O *D sky130_fd_sc_hd__buf_4
*CAP
1 *264:B 0.000125992
2 *330:X 0.000125992
3 alu_out[4] *264:B 4.01691e-05
4 *330:A *264:B 6.27782e-05
*RES
1 *330:X *264:B 21.9947 
*END

*D_NET *97 0.00123414
*CONN
*P reg_op1[0] I
*I *185:A I *D sky130_fd_sc_hd__nand2_1
*I *260:A I *D sky130_fd_sc_hd__xor2_1
*CAP
1 reg_op1[0] 0.000161913
2 *185:A 0.000151766
3 *260:A 0
4 *97:11 0.000313679
5 *185:A *185:B 0.000246679
6 *97:11 *122:13 0.00017794
7 *97:11 *123:17 2.9322e-05
8 *97:11 *157:15 6.17985e-05
9 alu_out[1] *185:A 7.01935e-06
10 alu_out[1] *97:11 8.2738e-06
11 alu_out[2] *97:11 4.25268e-05
12 *261:A *185:A 3.3221e-05
*RES
1 reg_op1[0] *97:11 11.1081 
2 *97:11 *260:A 9.24915 
3 *97:11 *185:A 14.6264 
*END

*D_NET *98 0.00292578
*CONN
*P reg_op1[10] I
*I *180:A I *D sky130_fd_sc_hd__xnor2_1
*I *200:A I *D sky130_fd_sc_hd__maj3_2
*CAP
1 reg_op1[10] 0.000410403
2 *180:A 0.000170809
3 *200:A 0.00013294
4 *98:9 0.000714152
5 *180:A *180:B 4.0752e-05
6 *180:A *200:B 0.000101133
7 *180:A *206:B 1.64789e-05
8 *200:A *200:B 0.000433957
9 *200:A *270:A 6.08467e-05
10 *200:A *270:B 1.65872e-05
11 *98:9 *199:A 5.89155e-05
12 *98:9 *270:A 9.25476e-05
13 *98:9 *270:B 9.2346e-06
14 *98:9 *100:11 0.000123966
15 *98:9 *128:7 0
16 *98:9 *133:9 1.15279e-05
17 *98:9 *159:9 4.29846e-05
18 *199:C *180:A 0.000122083
19 *199:C *98:9 0.00022117
20 *205:B *180:A 7.46648e-06
21 *205:B *98:9 1.2693e-05
22 *206:C *180:A 0.000115934
23 *271:B *200:A 9.19886e-06
*RES
1 reg_op1[10] *98:9 11.3725 
2 *98:9 *200:A 18.9335 
3 *98:9 *180:A 19.5169 
*END

*D_NET *99 0.00204602
*CONN
*P reg_op1[11] I
*I *201:A I *D sky130_fd_sc_hd__maj3_2
*I *273:A I *D sky130_fd_sc_hd__xnor2_1
*CAP
1 reg_op1[11] 0.000312258
2 *201:A 0
3 *273:A 0.000254475
4 *99:11 0.000566733
5 *273:A *273:B 0.000309206
6 *273:A *131:15 4.44312e-05
7 *99:11 *103:13 9.54269e-05
8 *99:11 *131:15 3.20264e-05
9 alu_out[12] *99:11 0.000179709
10 *205:B *99:11 0.000191861
11 *337:A *99:11 6.14474e-06
12 *23:10 *99:11 5.37494e-05
*RES
1 reg_op1[11] *99:11 12.7363 
2 *99:11 *273:A 15.5668 
3 *99:11 *201:A 9.24915 
*END

*D_NET *100 0.00237141
*CONN
*P reg_op1[12] I
*I *203:A I *D sky130_fd_sc_hd__maj3_2
*I *202:A I *D sky130_fd_sc_hd__xnor2_1
*CAP
1 reg_op1[12] 0.000393346
2 *203:A 0.000213847
3 *202:A 0
4 *100:11 0.000607193
5 *203:A *203:B 0.00018945
6 *100:11 *199:A 0
7 *100:11 *206:A 1.2693e-05
8 *100:11 *206:B 0.000164503
9 *100:11 *102:9 0.000138015
10 *100:11 *132:11 3.04443e-05
11 *100:11 *133:9 0.000273163
12 *205:B *100:11 0
13 *275:B *203:A 0.000164829
14 *23:10 *100:11 5.99635e-05
15 *98:9 *100:11 0.000123966
*RES
1 reg_op1[12] *100:11 19.8284 
2 *100:11 *202:A 9.24915 
3 *100:11 *203:A 15.5668 
*END

*D_NET *101 0.00101026
*CONN
*P reg_op1[13] I
*I *206:A I *D sky130_fd_sc_hd__maj3_2
*I *204:A I *D sky130_fd_sc_hd__xnor2_1
*CAP
1 reg_op1[13] 9.99417e-05
2 *206:A 6.32019e-05
3 *204:A 6.48039e-05
4 *101:7 0.000227947
5 *204:A *206:B 0.000113188
6 *206:A *206:B 0.000150576
7 *101:7 *102:9 7.2593e-05
8 *101:7 *128:7 3.19475e-05
9 alu_out[11] *101:7 0.000144835
10 *205:B *204:A 0
11 *205:B *206:A 0
12 *23:10 *206:A 2.85274e-05
13 *100:11 *206:A 1.2693e-05
*RES
1 reg_op1[13] *101:7 3.89091 
2 *101:7 *204:A 15.7888 
3 *101:7 *206:A 16.2363 
*END

*D_NET *102 0.00297029
*CONN
*P reg_op1[14] I
*I *209:A I *D sky130_fd_sc_hd__maj3_2
*I *207:A I *D sky130_fd_sc_hd__xnor2_1
*CAP
1 reg_op1[14] 0.000629511
2 *209:A 0.000141313
3 *207:A 6.46078e-05
4 *102:9 0.000835431
5 *209:A *103:13 6.12426e-05
6 *102:9 *103:13 0.000194359
7 *102:9 *128:7 6.96594e-05
8 *102:9 *132:11 4.51062e-05
9 alu_out[14] *102:9 0.000300608
10 alu_out[8] *209:A 0.000160839
11 alu_out[8] *102:9 0.000190886
12 *275:B *102:9 6.61154e-05
13 *23:10 *102:9 0
14 *100:11 *102:9 0.000138015
15 *101:7 *102:9 7.2593e-05
*RES
1 reg_op1[14] *102:9 23.4804 
2 *102:9 *207:A 15.0271 
3 *102:9 *209:A 18.1049 
*END

*D_NET *103 0.00322787
*CONN
*P reg_op1[15] I
*I *212:A I *D sky130_fd_sc_hd__maj3_2
*I *210:A I *D sky130_fd_sc_hd__xnor2_1
*CAP
1 reg_op1[15] 0.000846592
2 *212:A 0.000161128
3 *210:A 0
4 *103:13 0.00100772
5 *212:A *212:B 0.000153292
6 *103:13 *207:B 0.000180079
7 *103:13 *212:B 6.27782e-05
8 *103:13 *130:9 1.94168e-05
9 *103:13 *134:9 0.000119262
10 *103:13 *135:9 0
11 alu_out[14] *103:13 3.71946e-05
12 *209:A *103:13 6.12426e-05
13 *209:C *103:13 7.96668e-05
14 *211:B *103:13 7.44784e-05
15 *275:B *103:13 6.3684e-05
16 *23:10 *103:13 7.15502e-05
17 *25:14 *103:13 0
18 *99:11 *103:13 9.54269e-05
19 *102:9 *103:13 0.000194359
*RES
1 reg_op1[15] *103:13 29.5536 
2 *103:13 *210:A 9.24915 
3 *103:13 *212:A 14.4576 
*END

*D_NET *104 0.00319166
*CONN
*P reg_op1[16] I
*I *215:A I *D sky130_fd_sc_hd__maj3_2
*I *213:A I *D sky130_fd_sc_hd__xnor2_1
*CAP
1 reg_op1[16] 0.000812622
2 *215:A 0
3 *213:A 0.000148366
4 *104:9 0.000960988
5 *213:A *213:B 0.000141876
6 *104:9 *213:B 5.03545e-06
7 *104:9 *135:9 0.000199045
8 *104:9 *136:9 0.000814965
9 alu_out[15] *104:9 3.97063e-06
10 *215:C *104:9 0.000104795
*RES
1 reg_op1[16] *104:9 6.97948 
2 *104:9 *213:A 18.1049 
3 *104:9 *215:A 13.7491 
*END

*D_NET *105 0.00212789
*CONN
*P reg_op1[17] I
*I *218:A I *D sky130_fd_sc_hd__maj3_2
*I *216:A I *D sky130_fd_sc_hd__xnor2_1
*CAP
1 reg_op1[17] 0.000349474
2 *218:A 0
3 *216:A 0.000158813
4 *105:9 0.000508287
5 *216:A *216:B 0.000270391
6 *216:A *217:A 4.3116e-06
7 *105:9 *216:B 1.07248e-05
8 *105:9 *217:A 1.01315e-05
9 *105:9 *106:11 1.15279e-05
10 *105:9 *137:9 0.000451701
11 *105:9 *138:11 0.000352534
12 *331:A *105:9 0
13 *31:10 *105:9 0
*RES
1 reg_op1[17] *105:9 8.35645 
2 *105:9 *216:A 18.9354 
3 *105:9 *218:A 13.7491 
*END

*D_NET *106 0.00200442
*CONN
*P reg_op1[18] I
*I *221:A I *D sky130_fd_sc_hd__maj3_2
*I *219:A I *D sky130_fd_sc_hd__xnor2_1
*CAP
1 reg_op1[18] 0.000235425
2 *221:A 0
3 *219:A 0.00017469
4 *106:11 0.000410115
5 *219:A *219:B 0.000537143
6 *106:11 *112:11 4.27599e-05
7 *106:11 *138:11 0.000328823
8 *106:11 *144:13 0.000263937
9 *105:9 *106:11 1.15279e-05
*RES
1 reg_op1[18] *106:11 9.45794 
2 *106:11 *219:A 15.5186 
3 *106:11 *221:A 9.24915 
*END

*D_NET *107 0.00355322
*CONN
*P reg_op1[19] I
*I *224:A I *D sky130_fd_sc_hd__maj3_2
*I *222:A I *D sky130_fd_sc_hd__xnor2_1
*CAP
1 reg_op1[19] 0.000742671
2 *224:A 0
3 *222:A 0.000215806
4 *107:9 0.000958477
5 *222:A *222:B 0.000404296
6 *222:A *112:11 8.24888e-05
7 *107:9 *222:B 1.03594e-05
8 *107:9 *111:9 0.000170975
9 *107:9 *112:11 0.000215229
10 *107:9 *139:9 1.25793e-05
11 *107:9 *142:7 3.88336e-05
12 *107:9 *144:13 0.000178422
13 alu_out[23] *107:9 9.92163e-05
14 *223:B *222:A 5.04829e-06
15 *224:C *222:A 7.69988e-06
16 *229:B *107:9 0.000347956
17 *37:12 *107:9 6.31665e-05
*RES
1 reg_op1[19] *107:9 19.754 
2 *107:9 *222:A 21.1538 
3 *107:9 *224:A 13.7491 
*END

*D_NET *108 0.00098512
*CONN
*P reg_op1[1] I
*I *186:A I *D sky130_fd_sc_hd__nor2_2
*I *184:A I *D sky130_fd_sc_hd__nand2_1
*CAP
1 reg_op1[1] 0.000208289
2 *186:A 1.7821e-05
3 *184:A 0
4 *108:11 0.00022611
5 *186:A *186:B 0.000113968
6 *108:11 *129:11 0.000186227
7 *108:11 *140:11 0.000109393
8 *108:11 *157:15 1.09496e-05
9 *2:6 *186:A 0.000112361
*RES
1 reg_op1[1] *108:11 11.9386 
2 *108:11 *184:A 9.24915 
3 *108:11 *186:A 10.5271 
*END

*D_NET *109 0.00204347
*CONN
*P reg_op1[20] I
*I *225:A I *D sky130_fd_sc_hd__xnor2_1
*I *227:A I *D sky130_fd_sc_hd__maj3_2
*CAP
1 reg_op1[20] 0.000248872
2 *225:A 0
3 *227:A 0.000223231
4 *109:11 0.000472103
5 *227:A *227:B 0.000332973
6 *109:11 *232:A 6.34651e-06
7 *109:11 *110:7 0.000163497
8 *109:11 *141:11 0.000114171
9 *109:11 *143:11 0.000259718
10 *109:11 *144:13 4.88023e-05
11 alu_out[18] *109:11 0
12 alu_out[21] *109:11 0.00017376
*RES
1 reg_op1[20] *109:11 14.2443 
2 *109:11 *227:A 15.0122 
3 *109:11 *225:A 9.24915 
*END

*D_NET *110 0.00238707
*CONN
*P reg_op1[21] I
*I *230:A I *D sky130_fd_sc_hd__maj3_2
*I *228:A I *D sky130_fd_sc_hd__xnor2_1
*CAP
1 reg_op1[21] 0.000684869
2 *230:A 2.65305e-05
3 *228:A 0.000163047
4 *110:7 0.000874447
5 *110:7 *142:7 0.00046536
6 *230:C *230:A 9.31608e-06
7 *109:11 *110:7 0.000163497
*RES
1 reg_op1[21] *110:7 5.34423 
2 *110:7 *228:A 17.7673 
3 *110:7 *230:A 14.543 
*END

*D_NET *111 0.00174448
*CONN
*P reg_op1[22] I
*I *233:A I *D sky130_fd_sc_hd__maj3_2
*I *231:A I *D sky130_fd_sc_hd__xnor2_1
*CAP
1 reg_op1[22] 0.00013266
2 *233:A 0.000233557
3 *231:A 0.000141887
4 *111:9 0.000508104
5 *231:A *143:11 3.05511e-05
6 *231:A *144:13 4.61781e-05
7 *111:9 *142:7 0.000158987
8 *111:9 *144:13 1.12133e-05
9 alu_out[18] *231:A 0
10 alu_out[18] *111:9 0
11 *229:B *233:A 0.00015607
12 *236:C *233:A 4.19317e-05
13 *328:A *233:A 0.000112367
14 *107:9 *111:9 0.000170975
*RES
1 reg_op1[22] *111:9 4.76127 
2 *111:9 *231:A 17.2421 
3 *111:9 *233:A 20.0427 
*END

*D_NET *112 0.00385646
*CONN
*P reg_op1[23] I
*I *234:A I *D sky130_fd_sc_hd__xnor2_1
*I *236:A I *D sky130_fd_sc_hd__maj3_2
*CAP
1 reg_op1[23] 0.00099274
2 *234:A 0
3 *236:A 0.000211294
4 *112:11 0.00120403
5 *236:A *236:B 0.000251198
6 *112:11 *233:B 0.000178983
7 *112:11 *139:9 9.02745e-05
8 *112:11 *144:13 0.000221633
9 alu_out[20] *112:11 1.93507e-05
10 *222:A *112:11 8.24888e-05
11 *229:B *112:11 0.000346472
12 *329:A *112:11 0
13 *106:11 *112:11 4.27599e-05
14 *107:9 *112:11 0.000215229
*RES
1 reg_op1[23] *112:11 28.5595 
2 *112:11 *236:A 15.0122 
3 *112:11 *234:A 9.24915 
*END

*D_NET *113 0.0018575
*CONN
*P reg_op1[24] I
*I *237:A I *D sky130_fd_sc_hd__xnor2_1
*I *239:A I *D sky130_fd_sc_hd__maj3_2
*CAP
1 reg_op1[24] 0.000281173
2 *237:A 0
3 *239:A 0.000200612
4 *113:13 0.000481785
5 *239:A *239:B 0.000331525
6 *113:13 *114:11 5.1276e-05
7 *113:13 *145:11 0.000352911
8 *113:13 *147:7 0
9 alu_out[25] *113:13 0.000123966
10 *241:A *239:A 0
11 *241:A *113:13 1.92172e-05
12 *45:6 *239:A 7.68538e-06
13 *45:6 *113:13 7.34948e-06
*RES
1 reg_op1[24] *113:13 10.5201 
2 *113:13 *239:A 15.0122 
3 *113:13 *237:A 9.24915 
*END

*D_NET *114 0.00130826
*CONN
*P reg_op1[25] I
*I *242:A I *D sky130_fd_sc_hd__maj3_2
*I *240:A I *D sky130_fd_sc_hd__xnor2_1
*CAP
1 reg_op1[25] 0.000137756
2 *242:A 0.000193003
3 *240:A 0
4 *114:11 0.000330759
5 *242:A *242:B 0.000246136
6 *114:11 *146:11 0.000239996
7 alu_out[25] *114:11 0.00010933
8 *113:13 *114:11 5.1276e-05
*RES
1 reg_op1[25] *114:11 8.999 
2 *114:11 *240:A 9.24915 
3 *114:11 *242:A 15.0122 
*END

*D_NET *115 0.00178254
*CONN
*P reg_op1[26] I
*I *245:A I *D sky130_fd_sc_hd__maj3_2
*I *243:A I *D sky130_fd_sc_hd__xnor2_1
*CAP
1 reg_op1[26] 0.000259379
2 *245:A 0
3 *243:A 0.000170579
4 *115:9 0.000429958
5 *243:A *243:B 0.000113756
6 *243:A *245:B 8.59399e-05
7 *115:9 *245:B 9.12416e-06
8 *115:9 *116:11 0.000380403
9 *115:9 *147:7 0.000328216
10 *245:C *243:A 3.587e-06
11 *47:8 *243:A 1.59362e-06
*RES
1 reg_op1[26] *115:9 5.03443 
2 *115:9 *243:A 18.9354 
3 *115:9 *245:A 13.7491 
*END

*D_NET *116 0.00205117
*CONN
*P reg_op1[27] I
*I *246:A I *D sky130_fd_sc_hd__xnor2_1
*I *248:A I *D sky130_fd_sc_hd__maj3_2
*CAP
1 reg_op1[27] 0.000323735
2 *246:A 0
3 *248:A 0.0002091
4 *116:11 0.000532835
5 *248:A *248:B 0.000252038
6 *116:11 *247:A 0
7 *116:11 *148:11 0.00035306
8 *115:9 *116:11 0.000380403
*RES
1 reg_op1[27] *116:11 10.4414 
2 *116:11 *248:A 15.0122 
3 *116:11 *246:A 9.24915 
*END

*D_NET *117 0.00185737
*CONN
*P reg_op1[28] I
*I *249:A I *D sky130_fd_sc_hd__xnor2_1
*I *251:A I *D sky130_fd_sc_hd__maj3_2
*CAP
1 reg_op1[28] 0.000284927
2 *249:A 0
3 *251:A 0.000222287
4 *117:11 0.000507214
5 *251:A *251:B 0.000257392
6 *117:11 *148:11 0.000114177
7 *117:11 *149:11 0.000385034
8 alu_out[28] *117:11 8.63418e-05
9 *250:B *117:11 0
10 *251:C *117:11 0
11 *253:A *251:A 0
*RES
1 reg_op1[28] *117:11 11.7965 
2 *117:11 *251:A 15.5668 
3 *117:11 *249:A 9.24915 
*END

*D_NET *118 0.00145528
*CONN
*P reg_op1[29] I
*I *254:A I *D sky130_fd_sc_hd__maj3_2
*I *252:A I *D sky130_fd_sc_hd__xnor2_1
*CAP
1 reg_op1[29] 0.000206875
2 *254:A 0.000177201
3 *252:A 0
4 *118:11 0.000384076
5 *254:A *254:B 0.000251893
6 *118:11 *120:11 7.73582e-06
7 *118:11 *149:11 5.19828e-05
8 *118:11 *150:11 0.000190295
9 alu_out[27] *118:11 0
10 alu_out[29] *118:11 6.67511e-05
11 *253:B *118:11 4.20184e-06
12 *55:10 *254:A 0.000114271
*RES
1 reg_op1[29] *118:11 10.1683 
2 *118:11 *252:A 9.24915 
3 *118:11 *254:A 15.0122 
*END

*D_NET *119 0.00100972
*CONN
*P reg_op1[2] I
*I *183:A I *D sky130_fd_sc_hd__xnor2_1
*I *189:A I *D sky130_fd_sc_hd__maj3_2
*CAP
1 reg_op1[2] 7.81195e-05
2 *183:A 8.59373e-05
3 *189:A 0
4 *119:9 0.000164057
5 *183:A *122:13 8.65944e-05
6 *183:A *157:15 0.000218375
7 *119:9 *122:13 3.13394e-05
8 *119:9 *123:17 0.000134253
9 *119:9 *151:9 0.000140941
10 *119:9 *157:15 7.00991e-05
*RES
1 reg_op1[2] *119:9 5.02354 
2 *119:9 *189:A 13.7491 
3 *119:9 *183:A 17.6574 
*END

*D_NET *120 0.00163253
*CONN
*P reg_op1[30] I
*I *257:A I *D sky130_fd_sc_hd__maj3_2
*I *255:A I *D sky130_fd_sc_hd__xnor2_1
*CAP
1 reg_op1[30] 0.000272177
2 *257:A 0
3 *255:A 0.000136993
4 *120:11 0.000409169
5 *255:A *255:B 0.000360307
6 *120:11 *149:11 0
7 *120:11 *150:11 0.000170975
8 *120:11 *152:11 0.000251152
9 *55:10 *120:11 2.40237e-05
10 *118:11 *120:11 7.73582e-06
*RES
1 reg_op1[30] *120:11 10.059 
2 *120:11 *255:A 13.8548 
3 *120:11 *257:A 9.24915 
*END

*D_NET *121 0.00120156
*CONN
*P reg_op1[31] I
*I *258:A I *D sky130_fd_sc_hd__xnor2_1
*CAP
1 reg_op1[31] 0.000293085
2 *258:A 0.000293085
3 *258:A *258:B 0.000494577
4 *256:B *258:A 4.3116e-06
5 *259:B *258:A 0.000116502
*RES
1 reg_op1[31] *258:A 24.1827 
*END

*D_NET *122 0.00201071
*CONN
*P reg_op1[3] I
*I *191:A I *D sky130_fd_sc_hd__maj3_2
*I *190:A I *D sky130_fd_sc_hd__xnor2_1
*CAP
1 reg_op1[3] 0.000408859
2 *191:A 0.000152715
3 *190:A 0
4 *122:13 0.000561573
5 *191:A *191:B 0.000124644
6 *122:13 *191:B 6.92705e-05
7 *122:13 *154:13 6.92705e-05
8 *122:13 *157:15 2.27671e-05
9 alu_out[1] *122:13 8.11343e-05
10 alu_out[2] *122:13 5.38612e-06
11 *183:A *122:13 8.65944e-05
12 *191:C *191:A 6.08467e-05
13 *263:B *191:A 0.000158371
14 *97:11 *122:13 0.00017794
15 *119:9 *122:13 3.13394e-05
*RES
1 reg_op1[3] *122:13 18.1231 
2 *122:13 *190:A 9.24915 
3 *122:13 *191:A 14.4576 
*END

*D_NET *123 0.00308811
*CONN
*P reg_op1[4] I
*I *192:A I *D sky130_fd_sc_hd__maj3_2
*I *182:A I *D sky130_fd_sc_hd__xnor2_1
*CAP
1 reg_op1[4] 0.000623463
2 *192:A 0.000144395
3 *182:A 5.11397e-05
4 *123:17 0.000818998
5 *192:A *192:B 0.000307784
6 *192:A *193:B 1.50924e-05
7 *192:A *194:A 1.03594e-05
8 *192:A *124:9 0.000163344
9 *192:A *157:15 0.000160001
10 *123:17 *183:B 1.93662e-05
11 *123:17 *151:9 8.73163e-05
12 *123:17 *157:15 4.12865e-05
13 alu_out[1] *123:17 0
14 alu_out[2] *123:17 4.69062e-05
15 alu_out[3] *123:17 3.39005e-05
16 alu_out[4] *182:A 4.24488e-05
17 alu_out[4] *123:17 0.000106605
18 *189:C *123:17 2.87136e-06
19 *191:C *123:17 0.000120584
20 *263:B *123:17 0
21 *264:A *123:17 7.19887e-05
22 *265:B *192:A 5.66878e-05
23 *9:14 *123:17 0
24 *97:11 *123:17 2.9322e-05
25 *119:9 *123:17 0.000134253
*RES
1 reg_op1[4] *123:17 20.4657 
2 *123:17 *182:A 10.5271 
3 *123:17 *192:A 24.8233 
*END

*D_NET *124 0.00131052
*CONN
*P reg_op1[5] I
*I *193:A I *D sky130_fd_sc_hd__xnor2_1
*I *194:A I *D sky130_fd_sc_hd__maj3_2
*CAP
1 reg_op1[5] 0.000207158
2 *193:A 0
3 *194:A 0.000106928
4 *124:9 0.000314086
5 *194:A *193:B 0.000160307
6 *194:A *155:9 4.27767e-05
7 *194:A *156:9 1.03594e-05
8 *194:A *157:15 1.4426e-05
9 *124:9 *182:B 6.97166e-05
10 *124:9 *154:13 6.01514e-05
11 *124:9 *155:9 8.70662e-06
12 *124:9 *157:15 1.25664e-05
13 alu_out[3] *124:9 0.00012963
14 *192:A *194:A 1.03594e-05
15 *192:A *124:9 0.000163344
*RES
1 reg_op1[5] *124:9 7.51505 
2 *124:9 *194:A 17.6574 
3 *124:9 *193:A 13.7491 
*END

*D_NET *125 0.00159797
*CONN
*P reg_op1[6] I
*I *181:A I *D sky130_fd_sc_hd__xnor2_1
*I *195:A I *D sky130_fd_sc_hd__maj3_2
*CAP
1 reg_op1[6] 7.43467e-05
2 *181:A 0.000319372
3 *195:A 0
4 *125:11 0.000393718
5 *181:A *181:B 0.000547536
6 *181:A *195:B 6.50586e-05
7 *125:11 *156:9 0.000118109
8 *125:11 *157:15 4.19401e-06
9 alu_out[6] *125:11 4.10489e-05
10 alu_out[7] *125:11 3.45837e-05
*RES
1 reg_op1[6] *125:11 8.61655 
2 *125:11 *195:A 9.24915 
3 *125:11 *181:A 18.3398 
*END

*D_NET *126 0.00146802
*CONN
*P reg_op1[7] I
*I *267:A I *D sky130_fd_sc_hd__xnor2_1
*I *196:A I *D sky130_fd_sc_hd__maj3_2
*CAP
1 reg_op1[7] 0.0001252
2 *267:A 0
3 *196:A 8.57501e-05
4 *126:11 0.00021095
5 *196:A *196:B 0.000388846
6 *126:11 *136:9 7.73582e-06
7 *126:11 *158:11 0.000138313
8 alu_out[7] *126:11 0.000135001
9 *196:C *196:A 0.000263038
10 *196:C *126:11 0.000113188
*RES
1 reg_op1[7] *126:11 10.354 
2 *126:11 *196:A 14.4576 
3 *126:11 *267:A 9.24915 
*END

*D_NET *127 0.00220581
*CONN
*P reg_op1[8] I
*I *197:A I *D sky130_fd_sc_hd__xnor2_1
*I *198:A I *D sky130_fd_sc_hd__maj3_2
*CAP
1 reg_op1[8] 0.0001766
2 *197:A 0.000202058
3 *198:A 0.000125557
4 *127:9 0.000504215
5 *197:A *197:B 6.27718e-05
6 *197:A *211:A 4.19199e-05
7 *197:A *134:9 0
8 alu_out[10] *127:9 0.000225297
9 alu_out[13] *197:A 7.43222e-05
10 alu_out[13] *127:9 0.000231325
11 alu_out[9] *197:A 0.000179914
12 alu_out[9] *127:9 2.72849e-05
13 *209:C *197:A 1.44463e-05
14 *269:B *197:A 4.32462e-05
15 *14:10 *197:A 1.21985e-05
16 *25:14 *197:A 0.000284658
*RES
1 reg_op1[8] *127:9 4.57549 
2 *127:9 *198:A 16.1605 
3 *127:9 *197:A 22.145 
*END

*D_NET *128 0.00134324
*CONN
*P reg_op1[9] I
*I *270:A I *D sky130_fd_sc_hd__xnor2_1
*I *199:A I *D sky130_fd_sc_hd__maj3_2
*CAP
1 reg_op1[9] 0.000183354
2 *270:A 0.000102376
3 *199:A 8.75184e-05
4 *128:7 0.000373248
5 *199:A *133:9 0
6 *270:A *200:B 1.65872e-05
7 *270:A *270:B 6.08467e-05
8 *270:A *133:9 0
9 *128:7 *133:9 0.000142578
10 alu_out[11] *128:7 0
11 *200:A *270:A 6.08467e-05
12 *205:B *270:A 6.28168e-05
13 *98:9 *199:A 5.89155e-05
14 *98:9 *270:A 9.25476e-05
15 *98:9 *128:7 0
16 *100:11 *199:A 0
17 *101:7 *128:7 3.19475e-05
18 *102:9 *128:7 6.96594e-05
*RES
1 reg_op1[9] *128:7 4.19688 
2 *128:7 *199:A 16.204 
3 *128:7 *270:A 17.3843 
*END

*D_NET *129 0.00152142
*CONN
*P reg_op2[0] I
*I *260:B I *D sky130_fd_sc_hd__xor2_1
*I *185:B I *D sky130_fd_sc_hd__nand2_1
*CAP
1 reg_op2[0] 0.000247247
2 *260:B 0
3 *185:B 0.000182209
4 *129:11 0.000429456
5 *129:11 *140:11 0.000101593
6 *129:11 *157:15 0.000128005
7 *185:A *185:B 0.000246679
8 *108:11 *129:11 0.000186227
*RES
1 reg_op2[0] *129:11 13.5231 
2 *129:11 *185:B 14.3129 
3 *129:11 *260:B 9.24915 
*END

*D_NET *130 0.00364997
*CONN
*P reg_op2[10] I
*I *180:B I *D sky130_fd_sc_hd__xnor2_1
*I *200:B I *D sky130_fd_sc_hd__maj3_2
*CAP
1 reg_op2[10] 0.000414322
2 *180:B 0.000121669
3 *200:B 0.000471871
4 *130:9 0.00100786
5 *130:9 *131:15 3.88227e-05
6 *130:9 *132:11 8.5332e-05
7 alu_out[11] *130:9 0
8 alu_out[14] *130:9 4.25268e-05
9 *180:A *180:B 4.0752e-05
10 *180:A *200:B 0.000101133
11 *199:C *200:B 2.86654e-05
12 *199:C *130:9 6.38976e-05
13 *200:A *200:B 0.000433957
14 *203:C *130:9 0.000108106
15 *205:B *200:B 0.000171156
16 *205:B *130:9 0.000258215
17 *206:C *180:B 0.000111708
18 *270:A *200:B 1.65872e-05
19 *23:10 *180:B 0.000113968
20 *103:13 *130:9 1.94168e-05
*RES
1 reg_op2[10] *130:9 9.21975 
2 *130:9 *200:B 24.085 
3 *130:9 *180:B 17.2697 
*END

*D_NET *131 0.00202144
*CONN
*P reg_op2[11] I
*I *273:B I *D sky130_fd_sc_hd__xnor2_1
*I *201:B I *D sky130_fd_sc_hd__maj3_2
*CAP
1 reg_op2[11] 0.000361832
2 *273:B 9.92781e-05
3 *201:B 0
4 *131:15 0.000461111
5 *131:15 *132:11 8.8277e-05
6 alu_out[11] *131:15 0.000212563
7 *201:C *273:B 0.000157107
8 *205:B *131:15 9.57955e-05
9 *273:A *273:B 0.000309206
10 *273:A *131:15 4.44312e-05
11 *19:8 *273:B 7.92757e-06
12 *23:10 *131:15 0.00011306
13 *99:11 *131:15 3.20264e-05
14 *130:9 *131:15 3.88227e-05
*RES
1 reg_op2[11] *131:15 15.9016 
2 *131:15 *201:B 9.24915 
3 *131:15 *273:B 13.3243 
*END

*D_NET *132 0.00117628
*CONN
*P reg_op2[12] I
*I *203:B I *D sky130_fd_sc_hd__maj3_2
*I *202:B I *D sky130_fd_sc_hd__xnor2_1
*CAP
1 reg_op2[12] 6.62407e-05
2 *203:B 0.000290472
3 *202:B 0
4 *132:11 0.000356713
5 *203:A *203:B 0.00018945
6 *206:C *203:B 2.16355e-05
7 *23:10 *132:11 2.60879e-06
8 *100:11 *132:11 3.04443e-05
9 *102:9 *132:11 4.51062e-05
10 *130:9 *132:11 8.5332e-05
11 *131:15 *132:11 8.8277e-05
*RES
1 reg_op2[12] *132:11 8.95531 
2 *132:11 *202:B 9.24915 
3 *132:11 *203:B 16.6519 
*END

*D_NET *133 0.00156377
*CONN
*P reg_op2[13] I
*I *206:B I *D sky130_fd_sc_hd__maj3_2
*I *204:B I *D sky130_fd_sc_hd__xnor2_1
*CAP
1 reg_op2[13] 0.000141422
2 *206:B 0.00019635
3 *204:B 0
4 *133:9 0.000337772
5 *180:A *206:B 1.64789e-05
6 *199:A *133:9 0
7 *204:A *206:B 0.000113188
8 *205:B *206:B 0
9 *205:B *133:9 0
10 *206:A *206:B 0.000150576
11 *270:A *133:9 0
12 *23:10 *206:B 1.62073e-05
13 *98:9 *133:9 1.15279e-05
14 *100:11 *206:B 0.000164503
15 *100:11 *133:9 0.000273163
16 *128:7 *133:9 0.000142578
*RES
1 reg_op2[13] *133:9 6.68455 
2 *133:9 *204:B 13.7491 
3 *133:9 *206:B 20.3474 
*END

*D_NET *134 0.00130626
*CONN
*P reg_op2[14] I
*I *209:B I *D sky130_fd_sc_hd__maj3_2
*I *207:B I *D sky130_fd_sc_hd__xnor2_1
*CAP
1 reg_op2[14] 0.000154971
2 *209:B 3.29888e-05
3 *207:B 8.17894e-05
4 *134:9 0.000269749
5 alu_out[15] *134:9 0.000119019
6 alu_out[8] *209:B 2.16355e-05
7 alu_out[9] *134:9 0.000136705
8 *197:A *134:9 0
9 *209:C *207:B 0.000178466
10 *209:C *134:9 1.15929e-05
11 *25:14 *134:9 0
12 *103:13 *207:B 0.000180079
13 *103:13 *134:9 0.000119262
*RES
1 reg_op2[14] *134:9 6.2693 
2 *134:9 *207:B 17.2421 
3 *134:9 *209:B 14.4725 
*END

*D_NET *135 0.00173794
*CONN
*P reg_op2[15] I
*I *210:B I *D sky130_fd_sc_hd__xnor2_1
*I *212:B I *D sky130_fd_sc_hd__maj3_2
*CAP
1 reg_op2[15] 0.000189145
2 *210:B 5.56625e-05
3 *212:B 0.000180373
4 *135:9 0.00042518
5 alu_out[15] *135:9 0.000209549
6 *211:B *212:B 0.000258216
7 *211:B *135:9 4.69495e-06
8 *212:A *212:B 0.000153292
9 *14:10 *210:B 0
10 *14:10 *135:9 0
11 *103:13 *212:B 6.27782e-05
12 *103:13 *135:9 0
13 *104:9 *135:9 0.000199045
*RES
1 reg_op2[15] *135:9 4.91425 
2 *135:9 *212:B 20.0427 
3 *135:9 *210:B 14.7506 
*END

*D_NET *136 0.00351081
*CONN
*P reg_op2[16] I
*I *215:B I *D sky130_fd_sc_hd__maj3_2
*I *213:B I *D sky130_fd_sc_hd__xnor2_1
*CAP
1 reg_op2[16] 0.00100892
2 *215:B 0
3 *213:B 0.0001795
4 *136:9 0.00118842
5 *136:9 *158:11 0.000105988
6 *213:A *213:B 0.000141876
7 *214:B *213:B 2.53191e-05
8 *29:10 *213:B 3.30578e-05
9 *104:9 *213:B 5.03545e-06
10 *104:9 *136:9 0.000814965
11 *126:11 *136:9 7.73582e-06
*RES
1 reg_op2[16] *136:9 8.79347 
2 *136:9 *213:B 19.407 
3 *136:9 *215:B 13.7491 
*END

*D_NET *137 0.001938
*CONN
*P reg_op2[17] I
*I *218:B I *D sky130_fd_sc_hd__maj3_2
*I *216:B I *D sky130_fd_sc_hd__xnor2_1
*CAP
1 reg_op2[17] 0.000350763
2 *218:B 0
3 *216:B 0.000113212
4 *137:9 0.000463975
5 *216:B *217:A 9.34869e-05
6 *137:9 *217:A 4.90442e-05
7 alu_out[17] *137:9 1.65787e-05
8 alu_out[19] *137:9 0.000118125
9 *216:A *216:B 0.000270391
10 *105:9 *216:B 1.07248e-05
11 *105:9 *137:9 0.000451701
*RES
1 reg_op2[17] *137:9 6.61895 
2 *137:9 *216:B 18.5201 
3 *137:9 *218:B 13.7491 
*END

*D_NET *138 0.00248401
*CONN
*P reg_op2[18] I
*I *221:B I *D sky130_fd_sc_hd__maj3_2
*I *219:B I *D sky130_fd_sc_hd__xnor2_1
*CAP
1 reg_op2[18] 0.000283836
2 *221:B 0
3 *219:B 0.000123268
4 *138:11 0.000407104
5 *219:A *219:B 0.000537143
6 *220:B *219:B 0.000433229
7 *331:A *138:11 1.80671e-05
8 *105:9 *138:11 0.000352534
9 *106:11 *138:11 0.000328823
*RES
1 reg_op2[18] *138:11 10.6272 
2 *138:11 *219:B 16.0973 
3 *138:11 *221:B 9.24915 
*END

*D_NET *139 0.00175811
*CONN
*P reg_op2[19] I
*I *224:B I *D sky130_fd_sc_hd__maj3_2
*I *222:B I *D sky130_fd_sc_hd__xnor2_1
*CAP
1 reg_op2[19] 0.000273475
2 *224:B 0
3 *222:B 0.000145238
4 *139:9 0.000418713
5 *222:B *144:13 9.68966e-06
6 *139:9 *144:13 7.86825e-06
7 alu_out[20] *139:9 1.91072e-05
8 alu_out[21] *139:9 0.000198486
9 *222:A *222:B 0.000404296
10 *224:C *222:B 0.00016802
11 *107:9 *222:B 1.03594e-05
12 *107:9 *139:9 1.25793e-05
13 *112:11 *139:9 9.02745e-05
*RES
1 reg_op2[19] *139:9 4.72847 
2 *139:9 *222:B 19.6294 
3 *139:9 *224:B 13.7491 
*END

*D_NET *140 0.00129819
*CONN
*P reg_op2[1] I
*I *186:B I *D sky130_fd_sc_hd__nor2_2
*I *184:B I *D sky130_fd_sc_hd__nand2_1
*CAP
1 reg_op2[1] 0.000280235
2 *186:B 0.000175008
3 *184:B 0
4 *140:11 0.000455243
5 *186:A *186:B 0.000113968
6 *187:A *186:B 0
7 *2:6 *186:B 6.27472e-05
8 *108:11 *140:11 0.000109393
9 *129:11 *140:11 0.000101593
*RES
1 reg_op2[1] *140:11 13.4466 
2 *140:11 *184:B 9.24915 
3 *140:11 *186:B 13.903 
*END

*D_NET *141 0.00151385
*CONN
*P reg_op2[20] I
*I *225:B I *D sky130_fd_sc_hd__xnor2_1
*I *227:B I *D sky130_fd_sc_hd__maj3_2
*CAP
1 reg_op2[20] 0.000196837
2 *225:B 0
3 *227:B 0.00015574
4 *141:11 0.000352576
5 *141:11 *143:11 0.000144543
6 alu_out[18] *141:11 0
7 alu_out[21] *141:11 4.26243e-05
8 alu_out[22] *141:11 1.53776e-05
9 *227:A *227:B 0.000332973
10 *227:C *227:B 0.00015901
11 *109:11 *141:11 0.000114171
*RES
1 reg_op2[20] *141:11 10.4305 
2 *141:11 *227:B 14.6023 
3 *141:11 *225:B 9.24915 
*END

*D_NET *142 0.00255245
*CONN
*P reg_op2[21] I
*I *228:B I *D sky130_fd_sc_hd__xnor2_1
*I *230:B I *D sky130_fd_sc_hd__maj3_2
*CAP
1 reg_op2[21] 0.000438116
2 *228:B 0.000152485
3 *230:B 0.000191447
4 *142:7 0.000782048
5 *229:B *228:B 0.000114584
6 *230:C *230:B 1.09375e-05
7 *233:C *228:B 6.03263e-05
8 *233:C *230:B 4.88722e-05
9 *236:C *228:B 2.41274e-06
10 *329:A *230:B 7.39195e-05
11 *39:8 *230:B 1.41181e-05
12 *107:9 *142:7 3.88336e-05
13 *110:7 *142:7 0.00046536
14 *111:9 *142:7 0.000158987
*RES
1 reg_op2[21] *142:7 4.96178 
2 *142:7 *230:B 18.5912 
3 *142:7 *228:B 17.9001 
*END

*D_NET *143 0.00205868
*CONN
*P reg_op2[22] I
*I *231:B I *D sky130_fd_sc_hd__xnor2_1
*I *233:B I *D sky130_fd_sc_hd__maj3_2
*CAP
1 reg_op2[22] 0.000187318
2 *231:B 0
3 *233:B 0.000350338
4 *143:11 0.000537655
5 *233:B *232:A 0.000139764
6 *143:11 *232:A 0.000127885
7 *143:11 *144:13 0
8 alu_out[18] *143:11 0
9 *231:A *143:11 3.05511e-05
10 *233:C *233:B 2.49093e-05
11 *329:A *233:B 7.70136e-05
12 *109:11 *143:11 0.000259718
13 *112:11 *233:B 0.000178983
14 *141:11 *143:11 0.000144543
*RES
1 reg_op2[22] *143:11 11.6763 
2 *143:11 *233:B 27.457 
3 *143:11 *231:B 9.24915 
*END

*D_NET *144 0.00396656
*CONN
*P reg_op2[23] I
*I *234:B I *D sky130_fd_sc_hd__xnor2_1
*I *236:B I *D sky130_fd_sc_hd__maj3_2
*CAP
1 reg_op2[23] 0.00092788
2 *234:B 0
3 *236:B 0.000160153
4 *144:13 0.00108803
5 *144:13 *235:A 6.27679e-05
6 alu_out[18] *144:13 0
7 alu_out[21] *144:13 6.49002e-05
8 *222:B *144:13 9.68966e-06
9 *223:B *144:13 4.20184e-06
10 *224:C *144:13 0.000247789
11 *227:C *144:13 0.000138783
12 *231:A *144:13 4.61781e-05
13 *235:B *144:13 6.27718e-05
14 *236:A *236:B 0.000251198
15 *37:12 *144:13 0.000153225
16 *43:10 *236:B 1.71094e-05
17 *106:11 *144:13 0.000263937
18 *107:9 *144:13 0.000178422
19 *109:11 *144:13 4.88023e-05
20 *111:9 *144:13 1.12133e-05
21 *112:11 *144:13 0.000221633
22 *139:9 *144:13 7.86825e-06
23 *143:11 *144:13 0
*RES
1 reg_op2[23] *144:13 32.6406 
2 *144:13 *236:B 14.6023 
3 *144:13 *234:B 9.24915 
*END

*D_NET *145 0.00189678
*CONN
*P reg_op2[24] I
*I *237:B I *D sky130_fd_sc_hd__xnor2_1
*I *239:B I *D sky130_fd_sc_hd__maj3_2
*CAP
1 reg_op2[24] 0.000342764
2 *237:B 0
3 *239:B 8.77534e-05
4 *145:11 0.000430517
5 alu_out[24] *145:11 0.000272245
6 *238:B *145:11 4.20184e-06
7 *239:A *239:B 0.000331525
8 *239:C *145:11 0
9 *45:6 *239:B 7.48633e-05
10 *113:13 *145:11 0.000352911
*RES
1 reg_op2[24] *145:11 10.7802 
2 *145:11 *239:B 13.3243 
3 *145:11 *237:B 9.24915 
*END

*D_NET *146 0.00136916
*CONN
*P reg_op2[25] I
*I *240:B I *D sky130_fd_sc_hd__xnor2_1
*I *242:B I *D sky130_fd_sc_hd__maj3_2
*CAP
1 reg_op2[25] 0.000229255
2 *240:B 0
3 *242:B 0.000153192
4 *146:11 0.000382447
5 *146:11 *147:7 3.55601e-05
6 alu_out[26] *146:11 8.2568e-05
7 *242:A *242:B 0.000246136
8 *242:C *146:11 0
9 *47:8 *146:11 0
10 *114:11 *146:11 0.000239996
*RES
1 reg_op2[25] *146:11 10.9988 
2 *146:11 *242:B 14.6023 
3 *146:11 *240:B 9.24915 
*END

*D_NET *147 0.00147777
*CONN
*P reg_op2[26] I
*I *245:B I *D sky130_fd_sc_hd__maj3_2
*I *243:B I *D sky130_fd_sc_hd__xnor2_1
*CAP
1 reg_op2[26] 0.000290071
2 *245:B 3.40647e-05
3 *243:B 4.75148e-05
4 *147:7 0.000371651
5 alu_out[26] *147:7 8.40581e-05
6 *243:A *243:B 0.000113756
7 *243:A *245:B 8.59399e-05
8 *245:C *243:B 4.72708e-05
9 *245:C *245:B 3.05478e-05
10 *113:13 *147:7 0
11 *115:9 *245:B 9.12416e-06
12 *115:9 *147:7 0.000328216
13 *146:11 *147:7 3.55601e-05
*RES
1 reg_op2[26] *147:7 4.57933 
2 *147:7 *243:B 15.7888 
3 *147:7 *245:B 15.3735 
*END

*D_NET *148 0.00166195
*CONN
*P reg_op2[27] I
*I *246:B I *D sky130_fd_sc_hd__xnor2_1
*I *248:B I *D sky130_fd_sc_hd__maj3_2
*CAP
1 reg_op2[27] 0.000251346
2 *246:B 0
3 *248:B 0.000155494
4 *148:11 0.00040684
5 alu_out[28] *148:11 9.82797e-05
6 *248:A *248:B 0.000252038
7 *51:10 *248:B 3.07159e-05
8 *116:11 *148:11 0.00035306
9 *117:11 *148:11 0.000114177
*RES
1 reg_op2[27] *148:11 9.53443 
2 *148:11 *248:B 14.6023 
3 *148:11 *246:B 9.24915 
*END

*D_NET *149 0.00182255
*CONN
*P reg_op2[28] I
*I *249:B I *D sky130_fd_sc_hd__xnor2_1
*I *251:B I *D sky130_fd_sc_hd__maj3_2
*CAP
1 reg_op2[28] 0.000252956
2 *249:B 0
3 *251:B 0.000112336
4 *149:11 0.000365291
5 alu_out[27] *149:11 0
6 alu_out[29] *149:11 6.69663e-05
7 *251:A *251:B 0.000257392
8 *251:C *149:11 0
9 *253:A *251:B 4.88955e-05
10 *53:6 *251:B 0.0002817
11 *117:11 *149:11 0.000385034
12 *118:11 *149:11 5.19828e-05
13 *120:11 *149:11 0
*RES
1 reg_op2[28] *149:11 10.4742 
2 *149:11 *251:B 15.1569 
3 *149:11 *249:B 9.24915 
*END

*D_NET *150 0.00122566
*CONN
*P reg_op2[29] I
*I *252:B I *D sky130_fd_sc_hd__xnor2_1
*I *254:B I *D sky130_fd_sc_hd__maj3_2
*CAP
1 reg_op2[29] 0.000134412
2 *252:B 0
3 *254:B 0.000167318
4 *150:11 0.00030173
5 alu_out[27] *150:11 9.03858e-06
6 *254:A *254:B 0.000251893
7 *118:11 *150:11 0.000190295
8 *120:11 *150:11 0.000170975
*RES
1 reg_op2[29] *150:11 9.26127 
2 *150:11 *254:B 14.6023 
3 *150:11 *252:B 9.24915 
*END

*D_NET *151 0.00140542
*CONN
*P reg_op2[2] I
*I *183:B I *D sky130_fd_sc_hd__xnor2_1
*I *189:B I *D sky130_fd_sc_hd__maj3_2
*CAP
1 reg_op2[2] 0.000172087
2 *183:B 0.000138467
3 *189:B 0
4 *151:9 0.000310554
5 *183:B *157:15 0.000179
6 *151:9 *157:15 0.000160195
7 alu_out[2] *183:B 2.16355e-05
8 alu_out[3] *151:9 0.000175858
9 *189:C *183:B 0
10 *119:9 *151:9 0.000140941
11 *123:17 *183:B 1.93662e-05
12 *123:17 *151:9 8.73163e-05
*RES
1 reg_op2[2] *151:9 6.83753 
2 *151:9 *189:B 13.7491 
3 *151:9 *183:B 17.9655 
*END

*D_NET *152 0.00164326
*CONN
*P reg_op2[30] I
*I *255:B I *D sky130_fd_sc_hd__xnor2_1
*I *257:B I *D sky130_fd_sc_hd__maj3_2
*CAP
1 reg_op2[30] 0.000237865
2 *255:B 0.000134016
3 *257:B 0
4 *152:11 0.00037188
5 alu_out[31] *152:11 0.000176541
6 *255:A *255:B 0.000360307
7 *259:A *255:B 7.19887e-05
8 *342:A *152:11 9.58043e-06
9 *55:10 *152:11 2.99273e-05
10 *120:11 *152:11 0.000251152
*RES
1 reg_op2[30] *152:11 9.56723 
2 *152:11 *257:B 9.24915 
3 *152:11 *255:B 14.4335 
*END

*D_NET *153 0.00147214
*CONN
*P reg_op2[31] I
*I *258:B I *D sky130_fd_sc_hd__xnor2_1
*CAP
1 reg_op2[31] 0.000378614
2 *258:B 0.000378614
3 *256:B *258:B 0.000174205
4 *258:A *258:B 0.000494577
5 *259:B *258:B 4.61271e-05
*RES
1 reg_op2[31] *258:B 26.4199 
*END

*D_NET *154 0.00150824
*CONN
*P reg_op2[3] I
*I *191:B I *D sky130_fd_sc_hd__maj3_2
*I *190:B I *D sky130_fd_sc_hd__xnor2_1
*CAP
1 reg_op2[3] 0.000273842
2 *191:B 0.000202046
3 *190:B 0
4 *154:13 0.000475888
5 *154:13 *182:B 8.677e-05
6 *154:13 *155:9 7.73582e-06
7 *154:13 *157:15 0
8 alu_out[4] *154:13 5.94378e-05
9 *191:A *191:B 0.000124644
10 *191:C *191:B 6.50586e-05
11 *263:B *191:B 1.41291e-05
12 *122:13 *191:B 6.92705e-05
13 *122:13 *154:13 6.92705e-05
14 *124:9 *154:13 6.01514e-05
*RES
1 reg_op2[3] *154:13 13.8941 
2 *154:13 *190:B 9.24915 
3 *154:13 *191:B 15.5427 
*END

*D_NET *155 0.00166051
*CONN
*P reg_op2[4] I
*I *182:B I *D sky130_fd_sc_hd__xnor2_1
*I *192:B I *D sky130_fd_sc_hd__maj3_2
*CAP
1 reg_op2[4] 0.000115381
2 *182:B 7.59549e-05
3 *192:B 0.000270398
4 *155:9 0.000461734
5 *192:B *193:B 3.96696e-05
6 alu_out[4] *182:B 3.38623e-05
7 alu_out[4] *155:9 5.0395e-05
8 alu_out[5] *155:9 8.96241e-05
9 *192:A *192:B 0.000307784
10 *194:A *155:9 4.27767e-05
11 *124:9 *182:B 6.97166e-05
12 *124:9 *155:9 8.70662e-06
13 *154:13 *182:B 8.677e-05
14 *154:13 *155:9 7.73582e-06
*RES
1 reg_op2[4] *155:9 5.70107 
2 *155:9 *192:B 20.5973 
3 *155:9 *182:B 16.8269 
*END

*D_NET *156 0.00123355
*CONN
*P reg_op2[5] I
*I *193:B I *D sky130_fd_sc_hd__xnor2_1
*I *194:B I *D sky130_fd_sc_hd__maj3_2
*CAP
1 reg_op2[5] 0.00012437
2 *193:B 0.000126861
3 *194:B 0
4 *156:9 0.000251231
5 *193:B *157:15 0.000170667
6 *156:9 *157:15 6.85852e-05
7 alu_out[5] *156:9 0.000148295
8 alu_out[7] *156:9 0
9 *192:A *193:B 1.50924e-05
10 *192:B *193:B 3.96696e-05
11 *194:A *193:B 0.000160307
12 *194:A *156:9 1.03594e-05
13 *125:11 *156:9 0.000118109
*RES
1 reg_op2[5] *156:9 5.10003 
2 *156:9 *194:B 13.7491 
3 *156:9 *193:B 18.6836 
*END

*D_NET *157 0.00472538
*CONN
*P reg_op2[6] I
*I *181:B I *D sky130_fd_sc_hd__xnor2_1
*I *195:B I *D sky130_fd_sc_hd__maj3_2
*CAP
1 reg_op2[6] 0.00106451
2 *181:B 0.000144693
3 *195:B 1.59735e-05
4 *157:15 0.00122517
5 alu_out[0] *157:15 0.000162903
6 alu_out[1] *157:15 0
7 alu_out[5] *157:15 2.45675e-05
8 *181:A *181:B 0.000547536
9 *181:A *195:B 6.50586e-05
10 *183:A *157:15 0.000218375
11 *183:B *157:15 0.000179
12 *188:A1 *157:15 0
13 *192:A *157:15 0.000160001
14 *193:B *157:15 0.000170667
15 *194:A *157:15 1.4426e-05
16 *265:B *157:15 0
17 *6:12 *157:15 0
18 *12:10 *157:15 0.000115588
19 *13:10 *181:B 2.20702e-05
20 *13:10 *195:B 1.43983e-05
21 *97:11 *157:15 6.17985e-05
22 *108:11 *157:15 1.09496e-05
23 *119:9 *157:15 7.00991e-05
24 *122:13 *157:15 2.27671e-05
25 *123:17 *157:15 4.12865e-05
26 *124:9 *157:15 1.25664e-05
27 *125:11 *157:15 4.19401e-06
28 *129:11 *157:15 0.000128005
29 *151:9 *157:15 0.000160195
30 *154:13 *157:15 0
31 *156:9 *157:15 6.85852e-05
*RES
1 reg_op2[6] *157:15 36.2495 
2 *157:15 *195:B 9.97254 
3 *157:15 *181:B 15.5427 
*END

*D_NET *158 0.00135826
*CONN
*P reg_op2[7] I
*I *267:B I *D sky130_fd_sc_hd__xnor2_1
*I *196:B I *D sky130_fd_sc_hd__maj3_2
*CAP
1 reg_op2[7] 8.65358e-05
2 *267:B 0
3 *196:B 0.000244634
4 *158:11 0.00033117
5 *196:A *196:B 0.000388846
6 *14:10 *196:B 6.27782e-05
7 *126:11 *158:11 0.000138313
8 *136:9 *158:11 0.000105988
*RES
1 reg_op2[7] *158:11 9.0318 
2 *158:11 *196:B 16.5313 
3 *158:11 *267:B 9.24915 
*END

*D_NET *159 0.00416686
*CONN
*P reg_op2[8] I
*I *197:B I *D sky130_fd_sc_hd__xnor2_1
*I *198:B I *D sky130_fd_sc_hd__maj3_2
*CAP
1 reg_op2[8] 0.00104753
2 *197:B 0.000324565
3 *198:B 4.6898e-05
4 *159:9 0.001419
5 *197:B *211:A 0.00025821
6 *159:9 *270:B 0.000107628
7 *159:9 *272:B 0
8 *159:9 *160:9 0.000122592
9 alu_out[10] *159:9 0
10 alu_out[9] *159:9 0
11 *197:A *197:B 6.27718e-05
12 *198:C *197:B 0
13 *198:C *159:9 0
14 *200:C *159:9 5.25197e-05
15 *201:C *159:9 0.000162131
16 *271:B *159:9 0.000340992
17 *274:B *159:9 0
18 *335:A *197:B 6.27718e-05
19 *336:A *159:9 0
20 *14:10 *197:B 0
21 *16:12 *198:B 2.85139e-05
22 *16:12 *159:9 2.78195e-05
23 *18:10 *159:9 0
24 *25:14 *197:B 5.99352e-05
25 *98:9 *159:9 4.29846e-05
*RES
1 reg_op2[8] *159:9 29.5806 
2 *159:9 *198:B 15.0271 
3 *159:9 *197:B 23.0907 
*END

*D_NET *160 0.00142773
*CONN
*P reg_op2[9] I
*I *270:B I *D sky130_fd_sc_hd__xnor2_1
*I *199:B I *D sky130_fd_sc_hd__maj3_2
*CAP
1 reg_op2[9] 0.000199694
2 *270:B 0.000116031
3 *199:B 6.18652e-05
4 *160:9 0.00037759
5 *199:C *270:B 0.000179271
6 *200:A *270:B 1.65872e-05
7 *200:C *160:9 3.20069e-06
8 *270:A *270:B 6.08467e-05
9 *271:B *270:B 5.92192e-05
10 *17:8 *160:9 0.000113968
11 *98:9 *270:B 9.2346e-06
12 *159:9 *270:B 0.000107628
13 *159:9 *160:9 0.000122592
*RES
1 reg_op2[9] *160:9 10.7782 
2 *160:9 *199:B 10.5271 
3 *160:9 *270:B 23.0201 
*END
